# mpirun -np 4 siesta-4.1.5 < AT.fdf > AT.out &

SystemLabel      AT

NumberOfAtoms    30

NumberOfSpecies  4
%block ChemicalSpeciesLabel
    1    1  H
    2    7  N
    3   14  Si
    4    8  O
%endblock ChemicalSpeciesLabel

############################################
# This overrides Defaults.fdf configuration
############################################
MD.TypeOfRun                Verlet # CG, Verlet
MD.Steps                    0
MaxSCFIterations            300

AtomicCoordinatesFormat NotScaledCartesianAng
%block AtomicCoordinatesAndAtomicSpecies
    2.28494382 -5.19529124 0.0  1  1  H
    1.37433094 -4.6647107 0.0  2  2  N
    -0.21830245 -5.49458215 0.0  3  3  Si
    -0.17484108 -6.98516892 0.0  1  4  H
    -1.66171682 -4.58600741 0.0  2  5  N
    -1.09026419 -2.87456374 0.0  3  6  Si
    -1.53038332 -0.70765692 0.0  3  7  Si
    -3.14415959 -0.09186471 0.0  2  8  N
    -3.40268075 0.95848335 0.0  1  9  H
    -3.95073599 -0.76720972 0.0  1  10  H
    -0.17836637 0.41349951 0.0  2  11  N
    1.49520211 -0.0473996 0.0  3  12  Si
    2.45603905 1.10727302 0.0  1  13  H
    2.30451743 -1.58574382 0.0  2  14  N
    1.10725559 -2.84610319 0.0  3  15  Si
    0.14487942177671298 10.59771490866925 0.0  1  16  H
    -0.663831258223287 9.905509028669249 0.0  2  17  N
    -2.320421098223287 10.61862912866925 0.0  3  18  Si
    -2.223555928223287 12.129354338669248 0.0  1  19  H
    -4.046577448223287 9.275580998669248 0.0  3  20  Si
    -6.401031698223287 9.267594068669249 0.0  3  21  Si
    -6.963449818223287 10.00208371866925 -1.20183078  1  22  H
    -6.700845448223287 7.788502938669248 -0.08618332  1  23  H
    -6.963562278223287 9.832426528669249 1.28814761  1  24  H
    -3.117186808223287 7.20500976866925 0.0  3  25  Si
    -4.066655168223287 5.916473638669249 0.0  4  26  O
    -1.326241938223287 7.031274298669249 0.0  2  27  N
    -0.995250578223287 5.99891731866925 0.0  1  28  H
    -0.01778371822328706 8.22582071866925 0.0  3  29  Si
    1.5481532117767127 7.95857386866925 0.0  4  30  O
%endblock AtomicCoordinatesAndAtomicSpecies

%include ../../../../Defaults.fdf
