# mpirun -np 4 siesta-4.1.5 < GC.fdf > GC.out &

SystemLabel      GC

NumberOfAtoms    29

NumberOfSpecies  4
%block ChemicalSpeciesLabel
    1    1  H
    2    7  N
    3   14  Si
    4    8  O
%endblock ChemicalSpeciesLabel

############################################
# This overrides Defaults.fdf configuration
############################################
MD.TypeOfRun                CG # CG, Verlet
MD.Steps                    0
MaxSCFIterations            600

AtomicCoordinatesFormat NotScaledCartesianAng
%block AtomicCoordinatesAndAtomicSpecies
    -0.894523131040204 6.468310453683722 0.0  1  1  H
    -1.601009861040204 5.678274273683723 0.0  2  2  N
    -3.331296771040204 6.119638183683723 0.0  3  3  Si
    -3.487076451040204 7.609630443683723 0.0  1  4  H
    -4.854618391040204 4.560730663683723 0.0  3  5  Si
    -6.337806021040205 4.803561023683723 0.0  1  6  H
    -3.656227531040204 2.6474545036837225 0.0  3  7  Si
    -4.422252991040204 1.1147377636837226 0.0  2  8  N
    -3.832006441040204 0.15752473368372266 0.0  1  9  H
    -5.473875311040204 1.0342775336837227 0.0  1  10  H
    -1.940027471040204 2.7026288136837224 0.0  2  11  N
    -0.865004851040204 4.0329676536837225 0.0  3  12  Si
    0.7436684689597959 4.014157393683723 0.0  4  13  O
    5.6164483 -7.44953905 0.0  1  14  H
    4.58206954 -7.2320376 0.0  2  15  N
    3.29666389 -8.492636 0.0  3  16  Si
    3.80117524 -9.90371886 -0.0  1  17  H
    1.65934232 -8.01362137 0.0  2  18  N
    1.68097912 -6.20463398 -0.0  3  19  Si
    0.54543521 -4.28636135 0.0  3  20  Si
    -1.03431493 -3.94450034 0.0  4  21  O
    1.73226934 -2.87719605 0.0  2  22  N
    1.20957366 -1.92961761 -0.0  1  23  H
    3.50853448 -2.77677601 0.0  3  24  Si
    4.13684451 -1.17938608 0.0  2  25  N
    3.54296161 -0.26248101 0.0  1  26  H
    5.18364407 -1.05231197 -0.0  1  27  H
    4.63288658 -4.07521596 -0.0  2  28  N
    3.79410501 -5.58634043 0.0  3  29  Si
%endblock AtomicCoordinatesAndAtomicSpecies

%include ../../../../Defaults.fdf