SystemLabel      AT

NumberOfAtoms    30

NumberOfSpecies  4
%block ChemicalSpeciesLabel
    1    1  H
    2    7  N
    3   14  Si
    4    8  O
%endblock ChemicalSpeciesLabel

# Single point calculation
MD.TypeOfRun                CG
MD.Steps                    0
SCF.MustConverge            F # In case it does not. There can be 2 very close atoms

AtomicCoordinatesFormat NotScaledCartesianAng
%block AtomicCoordinatesAndAtomicSpecies
2.582377650    -5.776830440   0.000000000       1
1.654759240    -5.269361980   0.000000000       2
0.063128840    -6.101704590   0.000000000       3
0.119223240    -7.596849500   0.000000000       1
-1.376892050   -5.182603740   0.000000000       2
-0.824371900   -3.460866440   0.000000000       3
-1.170571480   -1.270002100   0.000000000       3
-2.706933680   -0.417515780   0.000000000       2
-2.754569660   0.634858620    0.000000000       1
-3.637675640   -0.909967860   0.000000000       1
0.218091790    -0.234193970   0.000000000       2
1.872004100    -0.697162300   0.000000000       3
2.828001130    0.461464770    0.000000000       1
2.648150080    -2.255024470   0.000000000       2
1.391921380    -3.454727220   0.000000000       3
1.845254499    7.926614250    0.000000000       2
0.517882979    9.136818550    0.000000000       3
1.157884249    10.498136790   0.000000000       1
-1.567862961   8.466287200    0.000000000       3
-3.597425561   9.596403390    0.000000000       3
-3.443189791   10.756633600   0.940305280       1
-4.583360281   8.574482770    0.512613700       1
-4.013640521   10.072629240   -1.366678340      1
-1.501367541   6.192310580    0.000000000       3
-2.540416271   4.999251080    0.000000000       4
0.155624039    5.558335390    0.000000000       2
0.137606669    4.495890560    0.000000000       1
1.779227109    6.155405600    0.000000000       3
2.974243279    5.140980400    0.000000000       4
2.845291869    8.272121350    0.000000000       1
%endblock AtomicCoordinatesAndAtomicSpecies

%include ../../../Defaults.fdf
