SystemLabel      AT

NumberOfAtoms    30

NumberOfSpecies  4
%block ChemicalSpeciesLabel
    1    1  H
    2    7  N
    3   14  Si
    4    8  O
%endblock ChemicalSpeciesLabel

# Single point calculation
MD.TypeOfRun                CG
MD.Steps                    0
SCF.MustConverge            F # In case it does not. There can be 2 very close atoms

AtomicCoordinatesFormat NotScaledCartesianAng
%block AtomicCoordinatesAndAtomicSpecies
2.582377650    -5.776830440   0.000000000       1
1.654759240    -5.269361980   0.000000000       2
0.063128840    -6.101704590   0.000000000       3
0.119223240    -7.596849500   0.000000000       1
-1.376892050   -5.182603740   0.000000000       2
-0.824371900   -3.460866440   0.000000000       3
-1.170571480   -1.270002100   0.000000000       3
-2.706933680   -0.417515780   0.000000000       2
-2.754569660   0.634858620    0.000000000       1
-3.637675640   -0.909967860   0.000000000       1
0.218091790    -0.234193970   0.000000000       2
1.872004100    -0.697162300   0.000000000       3
2.828001130    0.461464770    0.000000000       1
2.648150080    -2.255024470   0.000000000       2
1.391921380    -3.454727220   0.000000000       3
1.869247353    6.516561951    0.000000000       2
0.541875833    7.726766251    0.000000000       3
1.181877103    9.088084491    0.000000000       1
-1.543870107   7.056234901    0.000000000       3
-3.573432707   8.186351091    0.000000000       3
-3.419196937   9.346581301    0.940305280       1
-4.559367427   7.164430471    0.512613700       1
-3.989647667   8.662576941    -1.366678340      1
-1.477374687   4.782258281    0.000000000       3
-2.516423417   3.589198781    0.000000000       4
0.179616893    4.148283091    0.000000000       2
0.161599523    3.085838261    0.000000000       1
1.803219963    4.745353301    0.000000000       3
2.998236133    3.730928101    0.000000000       4
2.869284723    6.862069051    0.000000000       1
%endblock AtomicCoordinatesAndAtomicSpecies

%include ../../../Defaults.fdf
