# mpirun -np 4 siesta-4.1.5 < GC.fdf > GC.out &

SystemLabel      GC

NumberOfAtoms    29

NumberOfSpecies  4
%block ChemicalSpeciesLabel
    1    1  H
    2    7  N
    3   14  Si
    4    8  O
%endblock ChemicalSpeciesLabel

############################################
# This overrides Defaults.fdf configuration
############################################
MD.TypeOfRun                CG # CG, Verlet
MD.Steps                    0
MaxSCFIterations            600

AtomicCoordinatesFormat NotScaledCartesianAng
%block AtomicCoordinatesAndAtomicSpecies
    0.5174179410810911 4.366918398305737 0.0  1  1  H
    -0.18906878891890888 3.5768822183057365 0.0  2  2  N
    -1.919355698918909 4.018246128305736 0.0  3  3  Si
    -2.075135378918909 5.508238388305736 0.0  1  4  H
    -3.442677318918909 2.4593386083057363 0.0  3  5  Si
    -4.9258649489189095 2.7021689683057364 0.0  1  6  H
    -2.244286458918909 0.5460624483057364 0.0  3  7  Si
    -3.0103119189189087 -0.9866542916942637 0.0  2  8  N
    -2.420065368918909 -1.9438673216942637 0.0  1  9  H
    -4.061934238918909 -1.0671145216942635 0.0  1  10  H
    -0.5280863989189089 0.6012367583057364 0.0  2  11  N
    0.5469362210810911 1.9315755983057366 0.0  3  12  Si
    2.155609541081091 1.9127653383057366 0.0  4  13  O
    5.6164483 -7.44953905 0.0  1  14  H
    4.58206954 -7.2320376 0.0  2  15  N
    3.29666389 -8.492636 0.0  3  16  Si
    3.80117524 -9.90371886 -0.0  1  17  H
    1.65934232 -8.01362137 0.0  2  18  N
    1.68097912 -6.20463398 -0.0  3  19  Si
    0.54543521 -4.28636135 0.0  3  20  Si
    -1.03431493 -3.94450034 0.0  4  21  O
    1.73226934 -2.87719605 0.0  2  22  N
    1.20957366 -1.92961761 -0.0  1  23  H
    3.50853448 -2.77677601 0.0  3  24  Si
    4.13684451 -1.17938608 0.0  2  25  N
    3.54296161 -0.26248101 0.0  1  26  H
    5.18364407 -1.05231197 -0.0  1  27  H
    4.63288658 -4.07521596 -0.0  2  28  N
    3.79410501 -5.58634043 0.0  3  29  Si
%endblock AtomicCoordinatesAndAtomicSpecies

%include ../../../../Defaults.fdf