# mpirun -np 4 siesta-4.1.5 < GC.fdf > GC.out &

SystemLabel      GC

NumberOfAtoms    29

NumberOfSpecies  4
%block ChemicalSpeciesLabel
    1    1  H
    2    7  N
    3   14  Si
    4    8  O
%endblock ChemicalSpeciesLabel

############################################
# This overrides Defaults.fdf configuration
############################################
MD.TypeOfRun                Verlet # CG, Verlet
MD.Steps                    0
MaxSCFIterations            200
SCF.MustConverge            F

AtomicCoordinatesFormat NotScaledCartesianAng
%block AtomicCoordinatesAndAtomicSpecies
    0.2382214302515635 4.782446596564723 0.0  1  1  H
    -0.46826529974843645 3.9924104165647227 0.0  2  2  N
    -2.1985522097484367 4.4337743265647225 0.0  3  3  Si
    -2.3543318897484364 5.923766586564723 0.0  1  4  H
    -3.7218738297484366 2.8748668065647225 0.0  3  5  Si
    -5.205061459748437 3.1176971665647226 0.0  1  6  H
    -2.5234829697484367 0.9615906465647226 0.0  3  7  Si
    -3.2895084297484365 -0.5711260934352775 0.0  2  8  N
    -2.6992618797484367 -1.5283391234352774 0.0  1  9  H
    -4.341130749748436 -0.6515863234352774 0.0  1  10  H
    -0.8072829097484364 1.0167649565647225 0.0  2  11  N
    0.2677397102515635 2.3471037965647223 0.0  3  12  Si
    1.8764130302515634 2.328293536564723 0.0  4  13  O
    5.6164483 -7.44953905 0.0  1  14  H
    4.58206954 -7.2320376 0.0  2  15  N
    3.29666389 -8.492636 0.0  3  16  Si
    3.80117524 -9.90371886 -0.0  1  17  H
    1.65934232 -8.01362137 0.0  2  18  N
    1.68097912 -6.20463398 -0.0  3  19  Si
    0.54543521 -4.28636135 0.0  3  20  Si
    -1.03431493 -3.94450034 0.0  4  21  O
    1.73226934 -2.87719605 0.0  2  22  N
    1.20957366 -1.92961761 -0.0  1  23  H
    3.50853448 -2.77677601 0.0  3  24  Si
    4.13684451 -1.17938608 0.0  2  25  N
    3.54296161 -0.26248101 0.0  1  26  H
    5.18364407 -1.05231197 -0.0  1  27  H
    4.63288658 -4.07521596 -0.0  2  28  N
    3.79410501 -5.58634043 0.0  3  29  Si
%endblock AtomicCoordinatesAndAtomicSpecies

#############
# Unit Cell
#############
LatticeConstant 1.0 Ang
%block LatticeVectors
    30.00000    0.000000    0.000000
    0.000000    45.00000    0.000000
    0.000000    0.000000    10.00000
%endblock LatticeVectors

%include ../../../../Defaults.fdf