# mpirun -np 4 siesta-4.1.5 < AT.fdf > AT.out &

SystemLabel      AT

NumberOfAtoms    30

NumberOfSpecies  4
%block ChemicalSpeciesLabel
    1    1  H
    2    7  N
    3   14  Si
    4    8  O
%endblock ChemicalSpeciesLabel

############################################
# This overrides Defaults.fdf configuration
############################################
MD.TypeOfRun                Verlet # CG, Verlet
MD.Steps                    0
MaxSCFIterations            300

AtomicCoordinatesFormat NotScaledCartesianAng
%block AtomicCoordinatesAndAtomicSpecies
    2.28494382 -5.19529124 0.0  1  1  H
    1.37433094 -4.6647107 0.0  2  2  N
    -0.21830245 -5.49458215 0.0  3  3  Si
    -0.17484108 -6.98516892 0.0  1  4  H
    -1.66171682 -4.58600741 0.0  2  5  N
    -1.09026419 -2.87456374 0.0  3  6  Si
    -1.53038332 -0.70765692 0.0  3  7  Si
    -3.14415959 -0.09186471 0.0  2  8  N
    -3.40268075 0.95848335 0.0  1  9  H
    -3.95073599 -0.76720972 0.0  1  10  H
    -0.17836637 0.41349951 0.0  2  11  N
    1.49520211 -0.0473996 0.0  3  12  Si
    2.45603905 1.10727302 0.0  1  13  H
    2.30451743 -1.58574382 0.0  2  14  N
    1.10725559 -2.84610319 0.0  3  15  Si
    0.4543466751862524 8.378061431354931 0.0  1  16  H
    -0.35436400481374764 7.68585555135493 0.0  2  17  N
    -2.0109538448137476 8.398975651354931 0.0  3  18  Si
    -1.9140886748137476 9.90970086135493 0.0  1  19  H
    -3.7371101948137473 7.0559275213549295 0.0  3  20  Si
    -6.091564444813748 7.04794059135493 0.0  3  21  Si
    -6.653982564813748 7.7824302413549304 -1.20183078  1  22  H
    -6.391378194813748 5.5688494613549295 -0.08618332  1  23  H
    -6.654095024813747 7.61277305135493 1.28814761  1  24  H
    -2.8077195548137475 4.985356291354931 0.0  3  25  Si
    -3.7571879148137475 3.69682016135493 0.0  4  26  O
    -1.0167746848137476 4.81162082135493 0.0  2  27  N
    -0.6857833248137476 3.7792638413549304 0.0  1  28  H
    0.29168353518625234 6.00616724135493 0.0  3  29  Si
    1.8576204651862522 5.738920391354931 0.0  4  30  O
%endblock AtomicCoordinatesAndAtomicSpecies

%include ../../../../Defaults.fdf
