# mpirun -np 4 siesta-4.1.5 < AT.fdf > AT.out &

SystemLabel      AT

NumberOfAtoms    30

NumberOfSpecies  4
%block ChemicalSpeciesLabel
    1    1  H
    2    7  N
    3   14  Si
    4    8  O
%endblock ChemicalSpeciesLabel

############################################
# This overrides Defaults.fdf configuration
############################################
MD.TypeOfRun                Verlet # CG, Verlet
MD.Steps                    0
MaxSCFIterations            200
SCF.MustConverge            F

AtomicCoordinatesFormat NotScaledCartesianAng
%block AtomicCoordinatesAndAtomicSpecies
    2.28494382 -5.19529124 0.0  1  1  H
    1.37433094 -4.6647107 0.0  2  2  N
    -0.21830245 -5.49458215 0.0  3  3  Si
    -0.17484108 -6.98516892 0.0  1  4  H
    -1.66171682 -4.58600741 0.0  2  5  N
    -1.09026419 -2.87456374 0.0  3  6  Si
    -1.53038332 -0.70765692 0.0  3  7  Si
    -3.14415959 -0.09186471 0.0  2  8  N
    -3.40268075 0.95848335 0.0  1  9  H
    -3.95073599 -0.76720972 0.0  1  10  H
    -0.17836637 0.41349951 0.0  2  11  N
    1.49520211 -0.0473996 0.0  3  12  Si
    2.45603905 1.10727302 0.0  1  13  H
    2.30451743 -1.58574382 0.0  2  14  N
    1.10725559 -2.84610319 0.0  3  15  Si
    0.4462031532663435 8.436470831858415 0.0  1  16  H
    -0.3625075267336565 7.7442649518584155 0.0  2  17  N
    -2.0190973667336567 8.457385051858415 0.0  3  18  Si
    -1.9222321967336564 9.968110261858415 0.0  1  19  H
    -3.7452537167336564 7.114336921858415 0.0  3  20  Si
    -6.099707966733657 7.106349991858416 0.0  3  21  Si
    -6.662126086733657 7.840839641858415 -1.20183078  1  22  H
    -6.399521716733657 5.627258861858415 -0.08618332  1  23  H
    -6.662238546733657 7.6711824518584155 1.28814761  1  24  H
    -2.8158630767336565 5.0437656918584155 0.0  3  25  Si
    -3.7653314367336566 3.755229561858415 0.0  4  26  O
    -1.0249182067336566 4.870030221858415 0.0  2  27  N
    -0.6939268467336565 3.8376732418584156 0.0  1  28  H
    0.2835400132663435 6.064576641858415 0.0  3  29  Si
    1.8494769432663434 5.797329791858416 0.0  4  30  O
%endblock AtomicCoordinatesAndAtomicSpecies

#############
# Unit Cell
#############
LatticeConstant 1.0 Ang
%block LatticeVectors
    30.00000    0.000000    0.000000
    0.000000    45.00000    0.000000
    0.000000    0.000000    10.00000
%endblock LatticeVectors

%include ../../../../Defaults.fdf
