SystemLabel      GC

NumberOfAtoms    29

NumberOfSpecies  4
%block ChemicalSpeciesLabel
    1    8  O
    2    7  N
    3   14  Si
    4    1  H
%endblock ChemicalSpeciesLabel

# Single point calculation
MD.TypeOfRun                CG
MD.Steps                    0
SCF.MustConverge            F # In case it does not. There can be 2 very close atoms

AtomicCoordinatesFormat NotScaledCartesianAng
%block AtomicCoordinatesAndAtomicSpecies
0.854927710    3.902811360    0.000000000       1
-3.151486600   0.823854130    0.000000000       2
1.928518680    1.174000900    0.000000000       2
0.979899500    -1.830275890   0.000000000       2
-2.159258930   -2.028004800   0.000000000       2
3.785319770    -1.112700660   0.000000000       2
-1.345933810   0.976250250    0.000000000       3
-0.599439880   -1.096077170   0.000000000       3
0.453182890    2.350510230    0.000000000       3
2.133302030    -0.576510800   0.000000000       3
-3.516065660   -0.842056510   0.000000000       3
2.824527830    1.754723110    0.000000000       4
-4.877551690   -1.469214660   0.000000000       4
3.994952020    -2.143204000   0.000000000       4
4.620903610    -0.483666060   0.000000000       4
-2.279085180   -3.081514090   0.000000000       4
7.492981256    6.942695738    -0.000000000      3
9.361940746    8.202339368    -0.000000000      3
8.903008366    4.200957518    -0.000000000      3
10.970601086   6.707548738    -0.000000000      3
7.552511206    5.257743278    -0.000000000      2
5.862982056    7.572755968    -0.000000000      2
10.546897236   4.992047928    -0.000000000      2
9.642304446    9.672561888    -0.000000000      4
12.466012466   6.926401278    -0.000000000      4
5.618523066    8.591221918    -0.000000000      4
5.036240876    6.915907838    -0.000000000      4
8.962284126    2.618515488    -0.000000000      1
11.318552826   4.265080568    -0.000000000      4
%endblock AtomicCoordinatesAndAtomicSpecies

%include ../../../Defaults.fdf
