# mpirun -np 4 siesta-4.1.5 < GC.fdf > GC.out &

SystemLabel      GC

NumberOfAtoms    29

NumberOfSpecies  4
%block ChemicalSpeciesLabel
    1    1  H
    2    7  N
    3   14  Si
    4    8  O
%endblock ChemicalSpeciesLabel

############################################
# This overrides Defaults.fdf configuration
############################################
MD.TypeOfRun                Verlet # CG, Verlet
MD.Steps                    0
MaxSCFIterations            200
SCF.MustConverge            F

AtomicCoordinatesFormat NotScaledCartesianAng
%block AtomicCoordinatesAndAtomicSpecies
    -1.2310346225287288 6.969140544060634 0.0  1  1  H
    -1.9375213525287287 6.179104364060635 0.0  2  2  N
    -3.6678082625287285 6.620468274060634 0.0  3  3  Si
    -3.8235879425287287 8.110460534060635 0.0  1  4  H
    -5.191129882528729 5.061560754060634 0.0  3  5  Si
    -6.674317512528729 5.304391114060635 0.0  1  6  H
    -3.9927390225287285 3.1482845940606343 0.0  3  7  Si
    -4.758764482528729 1.6155678540606344 0.0  2  8  N
    -4.1685179325287285 0.6583548240606345 0.0  1  9  H
    -5.810386802528729 1.5351076240606345 0.0  1  10  H
    -2.2765389625287287 3.2034589040606343 0.0  2  11  N
    -1.2015163425287287 4.533797744060634 0.0  3  12  Si
    0.4071569774712711 4.514987484060635 0.0  4  13  O
    5.6164483 -7.44953905 0.0  1  14  H
    4.58206954 -7.2320376 0.0  2  15  N
    3.29666389 -8.492636 0.0  3  16  Si
    3.80117524 -9.90371886 -0.0  1  17  H
    1.65934232 -8.01362137 0.0  2  18  N
    1.68097912 -6.20463398 -0.0  3  19  Si
    0.54543521 -4.28636135 0.0  3  20  Si
    -1.03431493 -3.94450034 0.0  4  21  O
    1.73226934 -2.87719605 0.0  2  22  N
    1.20957366 -1.92961761 -0.0  1  23  H
    3.50853448 -2.77677601 0.0  3  24  Si
    4.13684451 -1.17938608 0.0  2  25  N
    3.54296161 -0.26248101 0.0  1  26  H
    5.18364407 -1.05231197 -0.0  1  27  H
    4.63288658 -4.07521596 -0.0  2  28  N
    3.79410501 -5.58634043 0.0  3  29  Si
%endblock AtomicCoordinatesAndAtomicSpecies

#############
# Unit Cell
#############
LatticeConstant 1.0 Ang
%block LatticeVectors
    30.00000    0.000000    0.000000
    0.000000    45.00000    0.000000
    0.000000    0.000000    10.00000
%endblock LatticeVectors

%include ../../../../Defaults.fdf