# mpirun -np 4 siesta-4.1.5 < Guanine.fdf > Guanine.out

SystemLabel      Guanine

NumberOfAtoms    16

NumberOfSpecies  4
%block ChemicalSpeciesLabel
    1    8  O
    2    7  N
    3   14  Si
    4    1  H
%endblock ChemicalSpeciesLabel

###################################
# This overrides Defaults.fdf conf
###################################
MD.TypeOfRun                CG # CG, Verlet

AtomicCoordinatesFormat NotScaledCartesianAng
%block AtomicCoordinatesAndAtomicSpecies
     0.871420000     3.740689000     0.000000000    1
    -3.073620000     0.797194000     0.000000000    2
     1.925949000     1.075908000     0.000000000    2
     0.978044000    -1.830773000     0.000000000    2
    -2.130352000    -2.006333000     0.000000000    2
     3.767725000    -1.090356000     0.000000000    2
    -1.319167000     0.932524000     0.000000000    3
    -0.573353000    -1.128459000     0.000000000    3
     0.499455000     2.232386000     0.000000000    3
     2.127451000    -0.633529000     0.000000000    3
    -3.443129000    -0.822945000     0.000000000    3
     2.805644000     1.646810000     0.000000000    4
    -4.825746000    -1.387455000     0.000000000    4
     4.039823000    -2.084493000     0.000000000    4
     4.564096000    -0.433838000     0.000000000    4
    -2.281251000    -3.035809000     0.000000000    4
%endblock AtomicCoordinatesAndAtomicSpecies

%include ../../Defaults.fdf