SystemLabel      AT

NumberOfAtoms    30

NumberOfSpecies  4
%block ChemicalSpeciesLabel
    1    1  H
    2    7  N
    3   14  Si
    4    8  O
%endblock ChemicalSpeciesLabel

# Single point calculation
MD.TypeOfRun                CG
MD.Steps                    0
SCF.MustConverge            F # In case it does not. There can be 2 very close atoms

AtomicCoordinatesFormat NotScaledCartesianAng
%block AtomicCoordinatesAndAtomicSpecies
2.582377650    -5.776830440   0.000000000       1
1.654759240    -5.269361980   0.000000000       2
0.063128840    -6.101704590   0.000000000       3
0.119223240    -7.596849500   0.000000000       1
-1.376892050   -5.182603740   0.000000000       2
-0.824371900   -3.460866440   0.000000000       3
-1.170571480   -1.270002100   0.000000000       3
-2.706933680   -0.417515780   0.000000000       2
-2.754569660   0.634858620    0.000000000       1
-3.637675640   -0.909967860   0.000000000       1
0.218091790    -0.234193970   0.000000000       2
1.872004100    -0.697162300   0.000000000       3
2.828001130    0.461464770    0.000000000       1
2.648150080    -2.255024470   0.000000000       2
1.391921380    -3.454727220   0.000000000       3
1.826060215    9.054656089    0.000000000       2
0.498688695    10.264860389   0.000000000       3
1.138689965    11.626178629   0.000000000       1
-1.587057245   9.594329039    0.000000000       3
-3.616619845   10.724445229   0.000000000       3
-3.462384075   11.884675439   0.940305280       1
-4.602554565   9.702524609    0.512613700       1
-4.032834805   11.200671079   -1.366678340      1
-1.520561825   7.320352419    0.000000000       3
-2.559610555   6.127292919    0.000000000       4
0.136429755    6.686377229    0.000000000       2
0.118412385    5.623932399    0.000000000       1
1.760032825    7.283447439    0.000000000       3
2.955048995    6.269022239    0.000000000       4
2.826097585    9.400163189    0.000000000       1
%endblock AtomicCoordinatesAndAtomicSpecies

%include ../../../Defaults.fdf
