# mpirun -np 4 siesta-4.1.5 < AT.fdf > AT.out &

SystemLabel      AT

NumberOfAtoms    30

NumberOfSpecies  4
%block ChemicalSpeciesLabel
    1    1  H
    2    7  N
    3   14  Si
    4    8  O
%endblock ChemicalSpeciesLabel

############################################
# This overrides Defaults.fdf configuration
############################################
MD.TypeOfRun                Verlet # CG, Verlet
MD.Steps                    0
MaxSCFIterations            300

AtomicCoordinatesFormat NotScaledCartesianAng
%block AtomicCoordinatesAndAtomicSpecies
    2.28494382 -5.19529124 0.0  1  1  H
    1.37433094 -4.6647107 0.0  2  2  N
    -0.21830245 -5.49458215 0.0  3  3  Si
    -0.17484108 -6.98516892 0.0  1  4  H
    -1.66171682 -4.58600741 0.0  2  5  N
    -1.09026419 -2.87456374 0.0  3  6  Si
    -1.53038332 -0.70765692 0.0  3  7  Si
    -3.14415959 -0.09186471 0.0  2  8  N
    -3.40268075 0.95848335 0.0  1  9  H
    -3.95073599 -0.76720972 0.0  1  10  H
    -0.17836637 0.41349951 0.0  2  11  N
    1.49520211 -0.0473996 0.0  3  12  Si
    2.45603905 1.10727302 0.0  1  13  H
    2.30451743 -1.58574382 0.0  2  14  N
    1.10725559 -2.84610319 0.0  3  15  Si
    0.7638139285957918 6.158407954040612 0.0  1  16  H
    -0.04489675140420821 5.466202074040612 0.0  2  17  N
    -1.701486591404208 6.179322174040612 0.0  3  18  Si
    -1.604621421404208 7.690047384040612 0.0  1  19  H
    -3.427642941404208 4.836274044040612 0.0  3  20  Si
    -5.782097191404208 4.828287114040612 0.0  3  21  Si
    -6.3445153114042085 5.562776764040612 -1.20183078  1  22  H
    -6.0819109414042085 3.3491959840406116 -0.08618332  1  23  H
    -6.344627771404208 5.393119574040612 1.28814761  1  24  H
    -2.498252301404208 2.765702814040612 0.0  3  25  Si
    -3.447720661404208 1.4771666840406117 0.0  4  26  O
    -0.7073074314042083 2.591967344040612 0.0  2  27  N
    -0.3763160714042082 1.559610364040612 0.0  1  28  H
    0.6011507885957917 3.7865137640406115 0.0  3  29  Si
    2.1670877185957917 3.519266914040612 0.0  4  30  O
%endblock AtomicCoordinatesAndAtomicSpecies

%include ../../../../Defaults.fdf
