SystemLabel      AT

NumberOfAtoms    30

NumberOfSpecies  4
%block ChemicalSpeciesLabel
    1    1  H
    2    7  N
    3   14  Si
    4    8  O
%endblock ChemicalSpeciesLabel

# Single point calculation
MD.TypeOfRun                CG
MD.Steps                    0
SCF.MustConverge            F # In case it does not. There can be 2 very close atoms

AtomicCoordinatesFormat NotScaledCartesianAng
%block AtomicCoordinatesAndAtomicSpecies
2.582377650    -5.776830440   0.000000000       1
1.654759240    -5.269361980   0.000000000       2
0.063128840    -6.101704590   0.000000000       3
0.119223240    -7.596849500   0.000000000       1
-1.376892050   -5.182603740   0.000000000       2
-0.824371900   -3.460866440   0.000000000       3
-1.170571480   -1.270002100   0.000000000       3
-2.706933680   -0.417515780   0.000000000       2
-2.754569660   0.634858620    0.000000000       1
-3.637675640   -0.909967860   0.000000000       1
0.218091790    -0.234193970   0.000000000       2
1.872004100    -0.697162300   0.000000000       3
2.828001130    0.461464770    0.000000000       1
2.648150080    -2.255024470   0.000000000       2
1.391921380    -3.454727220   0.000000000       3
1.862049497    6.939577641    0.000000000       2
0.534677977    8.149781941    0.000000000       3
1.174679247    9.511100181    0.000000000       1
-1.551067963   7.479250591    0.000000000       3
-3.580630563   8.609366781    0.000000000       3
-3.426394793   9.769596991    0.940305280       1
-4.566565283   7.587446161    0.512613700       1
-3.996845523   9.085592631    -1.366678340      1
-1.484572543   5.205273971    0.000000000       3
-2.523621273   4.012214471    0.000000000       4
0.172419037    4.571298781    0.000000000       2
0.154401667    3.508853951    0.000000000       1
1.796022107    5.168368991    0.000000000       3
2.991038277    4.153943791    0.000000000       4
2.862086867    7.285084741    0.000000000       1
%endblock AtomicCoordinatesAndAtomicSpecies

%include ../../../Defaults.fdf
