SystemLabel      desoxy2

NumberOfAtoms    37

NumberOfSpecies  4
%block ChemicalSpeciesLabel
    1    1  H
    2    8  O
    3   14  Si
%endblock ChemicalSpeciesLabel

###################################
# This overrides Defaults.fdf conf
###################################
MD.TypeOfRun                CG # CG, Verlet
MD.Steps                    300

AtomicCoordinatesFormat NotScaledCartesianAng
%block AtomicCoordinatesAndAtomicSpecies
    -0.423000000    -8.150000000    -2.094000000    1
     0.427000000    -7.826000000    -1.788000000    2
     1.443000000    -7.510000000    -2.756000000    3
     1.100000000    -6.745000000    -3.453000000    1
     1.674000000    -8.423000000    -3.305000000    1
     2.695000000    -7.020000000    -2.053000000    3
     3.574000000    -7.056000000    -2.696000000    1
     2.477000000    -5.630000000    -1.823000000    2
     2.308000000    -5.333000000    -0.452000000    3
     3.091000000    -4.700000000    -0.035000000    1
     1.098000000    -4.468000000    -0.370000000    1
     2.950000000    -7.607000000    -0.665000000    3
     2.586000000    -8.629000000    -0.554000000    1
     2.148000000    -6.679000000     0.247000000    3
     1.344000000    -7.241000000     0.722000000    1
     2.804000000    -6.267000000     1.014000000    1
     4.324000000    -7.545000000    -0.307000000    2
     4.728000000    -7.626000000     1.239000000    1s
%endblock AtomicCoordinatesAndAtomicSpecies

%include ../../defaults.fdf





