# mpirun -np 4 siesta-4.1.5 < AT.fdf > AT.out &

SystemLabel      AT

NumberOfAtoms    30

NumberOfSpecies  4
%block ChemicalSpeciesLabel
    1    1  H
    2    7  N
    3   14  Si
    4    8  O
%endblock ChemicalSpeciesLabel

############################################
# This overrides Defaults.fdf configuration
############################################
MD.TypeOfRun                Verlet # CG, Verlet
MD.Steps                    0
MaxSCFIterations            300

AtomicCoordinatesFormat NotScaledCartesianAng
%block AtomicCoordinatesAndAtomicSpecies
    2.28494382 -5.19529124 0.0  1  1  H
    1.37433094 -4.6647107 0.0  2  2  N
    -0.21830245 -5.49458215 0.0  3  3  Si
    -0.17484108 -6.98516892 0.0  1  4  H
    -1.66171682 -4.58600741 0.0  2  5  N
    -1.09026419 -2.87456374 0.0  3  6  Si
    -1.53038332 -0.70765692 0.0  3  7  Si
    -3.14415959 -0.09186471 0.0  2  8  N
    -3.40268075 0.95848335 0.0  1  9  H
    -3.95073599 -0.76720972 0.0  1  10  H
    -0.17836637 0.41349951 0.0  2  11  N
    1.49520211 -0.0473996 0.0  3  12  Si
    2.45603905 1.10727302 0.0  1  13  H
    2.30451743 -1.58574382 0.0  2  14  N
    1.10725559 -2.84610319 0.0  3  15  Si
    0.16698422559168014 10.439168231718227 0.0  1  16  H
    -0.6417264544083199 9.746962351718226 0.0  2  17  N
    -2.2983162944083197 10.460082451718225 0.0  3  18  Si
    -2.2014511244083197 11.970807661718226 0.0  1  19  H
    -4.02447264440832 9.117034321718226 0.0  3  20  Si
    -6.37892689440832 9.109047391718226 0.0  3  21  Si
    -6.94134501440832 9.843537041718225 -1.20183078  1  22  H
    -6.67874064440832 7.629956261718226 -0.08618332  1  23  H
    -6.9414574744083195 9.673879851718226 1.28814761  1  24  H
    -3.09508200440832 7.046463091718226 0.0  3  25  Si
    -4.04455036440832 5.757926961718226 0.0  4  26  O
    -1.30413713440832 6.8727276217182265 0.0  2  27  N
    -0.9731457744083198 5.840370641718226 0.0  1  28  H
    0.004321085591680096 8.067274041718225 0.0  3  29  Si
    1.5702580155916799 7.800027191718226 0.0  4  30  O
%endblock AtomicCoordinatesAndAtomicSpecies

%include ../../../../Defaults.fdf
