SystemLabel      GC

NumberOfAtoms    29

NumberOfSpecies  4
%block ChemicalSpeciesLabel
    1    8  O
    2    7  N
    3   14  Si
    4    1  H
%endblock ChemicalSpeciesLabel

# Single point calculation
MD.TypeOfRun                CG
MD.Steps                    0
SCF.MustConverge            F # In case it does not. There can be 2 very close atoms

AtomicCoordinatesFormat NotScaledCartesianAng
%block AtomicCoordinatesAndAtomicSpecies
0.854927710    3.902811360    0.000000000       1
-3.151486600   0.823854130    0.000000000       2
1.928518680    1.174000900    0.000000000       2
0.979899500    -1.830275890   0.000000000       2
-2.159258930   -2.028004800   0.000000000       2
3.785319770    -1.112700660   0.000000000       2
-1.345933810   0.976250250    0.000000000       3
-0.599439880   -1.096077170   0.000000000       3
0.453182890    2.350510230    0.000000000       3
2.133302030    -0.576510800   0.000000000       3
-3.516065660   -0.842056510   0.000000000       3
2.824527830    1.754723110    0.000000000       4
-4.877551690   -1.469214660   0.000000000       4
3.994952020    -2.143204000   0.000000000       4
4.620903610    -0.483666060   0.000000000       4
-2.279085180   -3.081514090   0.000000000       4
7.149739130    6.695351998    -0.000000000      3
9.018698620    7.954995628    -0.000000000      3
8.559766240    3.953613778    -0.000000000      3
10.627358960   6.460204998    -0.000000000      3
7.209269080    5.010399538    -0.000000000      2
5.519739930    7.325412228    -0.000000000      2
10.203655110   4.744704188    -0.000000000      2
9.299062320    9.425218148    -0.000000000      4
12.122770340   6.679057538    -0.000000000      4
5.275280940    8.343878178    -0.000000000      4
4.692998750    6.668564098    -0.000000000      4
8.619042000    2.371171748    -0.000000000      1
10.975310700   4.017736828    -0.000000000      4
%endblock AtomicCoordinatesAndAtomicSpecies

%include ../../../Defaults.fdf
