SystemLabel      GC

NumberOfAtoms    29

NumberOfSpecies  4
%block ChemicalSpeciesLabel
    1    8  O
    2    7  N
    3   14  Si
    4    1  H
%endblock ChemicalSpeciesLabel

# Single point calculation
MD.TypeOfRun                CG
MD.Steps                    0
SCF.MustConverge            F # In case it does not. There can be 2 very close atoms

AtomicCoordinatesFormat NotScaledCartesianAng
%block AtomicCoordinatesAndAtomicSpecies
1.043624880    3.939228610    0.000000000       1
-3.040641290   1.071078170    0.000000000       2
2.054601450    1.213582070    0.000000000       2
0.999014100    -1.732643800   0.000000000       2
-2.132351640   -1.812968220   0.000000000       2
3.860190550    -1.112298180   0.000000000       2
-1.236183220   1.152964460    0.000000000       3
-0.532924260   -0.939006270   0.000000000       3
0.635660470    2.374516770    0.000000000       3
2.245170240    -0.549967100   0.000000000       3
-3.449816660   -0.583665030   0.000000000       3
2.963714090    1.790992630    0.000000000       4
-4.845591350   -1.123549660   0.000000000       4
4.007020910    -2.152308560   0.000000000       4
4.772194380    -0.502318160   0.000000000       4
-2.265399090   -2.864605110   0.000000000       4
8.924773077    7.624334472    0.000000000       3
10.829657047   8.830973412    0.000000000       3
10.333902907   4.857999502    0.000000000       3
12.411373197   7.327216662    0.000000000       3
8.984395747    5.906906902    0.000000000       2
7.385638017    8.378011782    0.000000000       2
11.986198167   5.587836722    0.000000000       2
11.021001847   10.323127162   0.000000000       4
13.895741177   7.545947482    0.000000000       4
7.274292737    9.427206892    0.000000000       4
6.453080307    7.753097602    0.000000000       4
10.323676077   3.249888382    0.000000000       1
12.761624047   4.861145162    0.000000000       4
%endblock AtomicCoordinatesAndAtomicSpecies

%include ../../../Defaults.fdf
