SystemLabel      AT

NumberOfAtoms    30

NumberOfSpecies  4
%block ChemicalSpeciesLabel
    1    1  H
    2    7  N
    3   14  Si
    4    8  O
%endblock ChemicalSpeciesLabel

# Single point calculation
MD.TypeOfRun                CG
MD.Steps                    0
SCF.MustConverge            F # In case it does not. There can be 2 very close atoms

AtomicCoordinatesFormat NotScaledCartesianAng
%block AtomicCoordinatesAndAtomicSpecies
2.582377650    -5.776830440   0.000000000       1
1.654759240    -5.269361980   0.000000000       2
0.063128840    -6.101704590   0.000000000       3
0.119223240    -7.596849500   0.000000000       1
-1.376892050   -5.182603740   0.000000000       2
-0.824371900   -3.460866440   0.000000000       3
-1.170571480   -1.270002100   0.000000000       3
-2.706933680   -0.417515780   0.000000000       2
-2.754569660   0.634858620    0.000000000       1
-3.637675640   -0.909967860   0.000000000       1
0.218091790    -0.234193970   0.000000000       2
1.872004100    -0.697162300   0.000000000       3
2.828001130    0.461464770    0.000000000       1
2.648150080    -2.255024470   0.000000000       2
1.391921380    -3.454727220   0.000000000       3
1.828459500    8.913650859    0.000000000       2
0.501087980    10.123855159   0.000000000       3
1.141089250    11.485173399   0.000000000       1
-1.584657960   9.453323809    0.000000000       3
-3.614220560   10.583439999   0.000000000       3
-3.459984790   11.743670209   0.940305280       1
-4.600155280   9.561519379    0.512613700       1
-4.030435520   11.059665849   -1.366678340      1
-1.518162540   7.179347189    0.000000000       3
-2.557211270   5.986287689    0.000000000       4
0.138829040    6.545371999    0.000000000       2
0.120811670    5.482927169    0.000000000       1
1.762432110    7.142442209    0.000000000       3
2.957448280    6.128017009    0.000000000       4
2.828496870    9.259157959    0.000000000       1
%endblock AtomicCoordinatesAndAtomicSpecies

%include ../../../Defaults.fdf
