# mpirun -np 4 siesta-4.1.5 < GC.fdf > GC.out &

SystemLabel      GC

NumberOfAtoms    29

NumberOfSpecies  4
%block ChemicalSpeciesLabel
    1    1  H
    2    7  N
    3   14  Si
    4    8  O
%endblock ChemicalSpeciesLabel

############################################
# This overrides Defaults.fdf configuration
############################################
MD.TypeOfRun                CG # CG, Verlet
MD.Steps                    0
MaxSCFIterations            600

AtomicCoordinatesFormat NotScaledCartesianAng
%block AtomicCoordinatesAndAtomicSpecies
    1.3479715129171472 3.13080542455398 -0.0  1  1  H
    0.6414847829171473 2.34076924455398 -0.0  2  2  N
    -1.0888021270828527 2.78213315455398 0.0  3  3  Si
    -1.2445818070828527 4.2721254145539795 0.0  1  4  H
    -2.612123747082853 1.2232256345539798 -0.0  3  5  Si
    -4.0953113770828535 1.46605599455398 -0.0  1  6  H
    -1.4137328870828527 -0.6900505254460202 -0.0  3  7  Si
    -2.1797583470828528 -2.2227672654460204 -0.0  2  8  N
    -1.5895117970828527 -3.17998029544602 0.0  1  9  H
    -3.2313806670828527 -2.3032274954460203 -0.0  1  10  H
    0.3024671729171472 -0.6348762154460202 0.0  2  11  N
    1.3774897929171472 0.6954626245539799 -0.0  3  12  Si
    2.986163112917147 0.6766523645539799 -0.0  4  13  O
    5.6164483 -7.44953905 0.0  1  14  H
    4.58206954 -7.2320376 0.0  2  15  N
    3.29666389 -8.492636 0.0  3  16  Si
    3.80117524 -9.90371886 -0.0  1  17  H
    1.65934232 -8.01362137 0.0  2  18  N
    1.68097912 -6.20463398 -0.0  3  19  Si
    0.54543521 -4.28636135 0.0  3  20  Si
    -1.03431493 -3.94450034 0.0  4  21  O
    1.73226934 -2.87719605 0.0  2  22  N
    1.20957366 -1.92961761 -0.0  1  23  H
    3.50853448 -2.77677601 0.0  3  24  Si
    4.13684451 -1.17938608 0.0  2  25  N
    3.54296161 -0.26248101 0.0  1  26  H
    5.18364407 -1.05231197 -0.0  1  27  H
    4.63288658 -4.07521596 -0.0  2  28  N
    3.79410501 -5.58634043 0.0  3  29  Si
%endblock AtomicCoordinatesAndAtomicSpecies

%include ../../../../Defaults.fdf