# mpirun -np 4 siesta-4.1.5 < GC.fdf > GC.out &

SystemLabel      GC

NumberOfAtoms    29

NumberOfSpecies  4
%block ChemicalSpeciesLabel
    1    1  H
    2    7  N
    3   14  Si
    4    8  O
%endblock ChemicalSpeciesLabel

############################################
# This overrides Defaults.fdf configuration
############################################
MD.TypeOfRun                CG # CG, Verlet
MD.Steps                    0
MaxSCFIterations            600

AtomicCoordinatesFormat NotScaledCartesianAng
%block AtomicCoordinatesAndAtomicSpecies
    0.9326947269991192 3.748861911429858 0.0  1  1  H
    0.22620799699911923 2.958825731429858 0.0  2  2  N
    -1.5040789130008807 3.400189641429858 0.0  3  3  Si
    -1.6598585930008807 4.890181901429858 0.0  1  4  H
    -3.027400533000881 1.841282121429858 0.0  3  5  Si
    -4.5105881630008815 2.084112481429858 0.0  1  6  H
    -1.8290096730008807 -0.07199403857014197 0.0  3  7  Si
    -2.5950351330008807 -1.604710778570142 0.0  2  8  N
    -2.004788583000881 -2.561923808570142 0.0  1  9  H
    -3.6466574530008806 -1.685171008570142 0.0  1  10  H
    -0.11280961300088077 -0.016819728570141995 0.0  2  11  N
    0.9622130069991192 1.313519111429858 0.0  3  12  Si
    2.570886326999119 1.2947088514298581 0.0  4  13  O
    5.6164483 -7.44953905 0.0  1  14  H
    4.58206954 -7.2320376 0.0  2  15  N
    3.29666389 -8.492636 0.0  3  16  Si
    3.80117524 -9.90371886 -0.0  1  17  H
    1.65934232 -8.01362137 0.0  2  18  N
    1.68097912 -6.20463398 -0.0  3  19  Si
    0.54543521 -4.28636135 0.0  3  20  Si
    -1.03431493 -3.94450034 0.0  4  21  O
    1.73226934 -2.87719605 0.0  2  22  N
    1.20957366 -1.92961761 -0.0  1  23  H
    3.50853448 -2.77677601 0.0  3  24  Si
    4.13684451 -1.17938608 0.0  2  25  N
    3.54296161 -0.26248101 0.0  1  26  H
    5.18364407 -1.05231197 -0.0  1  27  H
    4.63288658 -4.07521596 -0.0  2  28  N
    3.79410501 -5.58634043 0.0  3  29  Si
%endblock AtomicCoordinatesAndAtomicSpecies

%include ../../../../Defaults.fdf