# mpirun -np 4 siesta-4.1.5 < AT.fdf > AT.out &

SystemLabel      AT

NumberOfAtoms    30

NumberOfSpecies  4
%block ChemicalSpeciesLabel
    1    1  H
    2    7  N
    3   14  Si
    4    8  O
%endblock ChemicalSpeciesLabel

############################################
# This overrides Defaults.fdf configuration
############################################
MD.TypeOfRun                Verlet # CG, Verlet
MD.Steps                    0
MaxSCFIterations            300

AtomicCoordinatesFormat NotScaledCartesianAng
%block AtomicCoordinatesAndAtomicSpecies
    2.28494382 -5.19529124 0.0  1  1  H
    1.37433094 -4.6647107 0.0  2  2  N
    -0.21830245 -5.49458215 0.0  3  3  Si
    -0.17484108 -6.98516892 0.0  1  4  H
    -1.66171682 -4.58600741 0.0  2  5  N
    -1.09026419 -2.87456374 0.0  3  6  Si
    -1.53038332 -0.70765692 0.0  3  7  Si
    -3.14415959 -0.09186471 0.0  2  8  N
    -3.40268075 0.95848335 0.0  1  9  H
    -3.95073599 -0.76720972 0.0  1  10  H
    -0.17836637 0.41349951 0.0  2  11  N
    1.49520211 -0.0473996 0.0  3  12  Si
    2.45603905 1.10727302 0.0  1  13  H
    2.30451743 -1.58574382 0.0  2  14  N
    1.10725559 -2.84610319 0.0  3  15  Si
    0.49855628281618664 8.060968077452886 0.0  1  16  H
    -0.3101543971838134 7.3687621974528845 0.0  2  17  N
    -1.9667442371838133 8.081882297452886 0.0  3  18  Si
    -1.8698790671838132 9.592607507452884 0.0  1  19  H
    -3.6929005871838134 6.738834167452884 0.0  3  20  Si
    -6.047354837183813 6.730847237452885 0.0  3  21  Si
    -6.6097729571838135 7.465336887452884 -1.20183078  1  22  H
    -6.3471685871838135 5.251756107452884 -0.08618332  1  23  H
    -6.609885417183813 7.295679697452885 1.28814761  1  24  H
    -2.7635099471838136 4.668262937452885 0.0  3  25  Si
    -3.7129783071838136 3.379726807452885 0.0  4  26  O
    -0.9725650771838135 4.494527467452885 0.0  2  27  N
    -0.6415737171838134 3.4621704874528847 0.0  1  28  H
    0.3358931428161866 5.689073887452884 0.0  3  29  Si
    1.9018300728161865 5.421827037452885 0.0  4  30  O
%endblock AtomicCoordinatesAndAtomicSpecies

%include ../../../../Defaults.fdf
