# mpirun -np 4 siesta-4.1.5 < AT.fdf > AT.out &

SystemLabel      AT

NumberOfAtoms    30

NumberOfSpecies  4
%block ChemicalSpeciesLabel
    1    1  H
    2    7  N
    3   14  Si
    4    8  O
%endblock ChemicalSpeciesLabel

############################################
# This overrides Defaults.fdf configuration
############################################
MD.TypeOfRun                Verlet # CG, Verlet
MD.Steps                    0
MaxSCFIterations            300

AtomicCoordinatesFormat NotScaledCartesianAng
%block AtomicCoordinatesAndAtomicSpecies
    2.28494382 -5.19529124 0.0  1  1  H
    1.37433094 -4.6647107 0.0  2  2  N
    -0.21830245 -5.49458215 0.0  3  3  Si
    -0.17484108 -6.98516892 0.0  1  4  H
    -1.66171682 -4.58600741 0.0  2  5  N
    -1.09026419 -2.87456374 0.0  3  6  Si
    -1.53038332 -0.70765692 0.0  3  7  Si
    -3.14415959 -0.09186471 0.0  2  8  N
    -3.40268075 0.95848335 0.0  1  9  H
    -3.95073599 -0.76720972 0.0  1  10  H
    -0.17836637 0.41349951 0.0  2  11  N
    1.49520211 -0.0473996 0.0  3  12  Si
    2.45603905 1.10727302 0.0  1  13  H
    2.30451743 -1.58574382 0.0  2  14  N
    1.10725559 -2.84610319 0.0  3  15  Si
    0.43224187137128534 8.536608108305954 0.0  1  16  H
    -0.3764688086287147 7.8444022283059525 0.0  2  17  N
    -2.0330586486287148 8.557522328305954 0.0  3  18  Si
    -1.9361934786287147 10.068247538305952 0.0  1  19  H
    -3.7592149986287144 7.214474198305952 0.0  3  20  Si
    -6.113669248628715 7.206487268305953 0.0  3  21  Si
    -6.676087368628715 7.940976918305953 -1.20183078  1  22  H
    -6.413482998628715 5.727396138305952 -0.08618332  1  23  H
    -6.6761998286287145 7.7713197283059525 1.28814761  1  24  H
    -2.8298243586287146 5.143902968305953 0.0  3  25  Si
    -3.7792927186287146 3.8553668383059527 0.0  4  26  O
    -1.0388794886287147 4.970167498305953 0.0  2  27  N
    -0.7078881286287146 3.937810518305953 0.0  1  28  H
    0.2695787313712853 6.164713918305953 0.0  3  29  Si
    1.8355156613712853 5.897467068305954 0.0  4  30  O
%endblock AtomicCoordinatesAndAtomicSpecies

%include ../../../../Defaults.fdf
