SystemLabel      AT

NumberOfAtoms    30

NumberOfSpecies  4
%block ChemicalSpeciesLabel
    1    1  H
    2    7  N
    3   14  Si
    4    8  O
%endblock ChemicalSpeciesLabel

# Single point calculation
MD.TypeOfRun                CG
MD.Steps                    0
SCF.MustConverge            F # In case it does not. There can be 2 very close atoms

AtomicCoordinatesFormat NotScaledCartesianAng
%block AtomicCoordinatesAndAtomicSpecies
2.582377650    -5.776830440   0.000000000       1
1.654759240    -5.269361980   0.000000000       2
0.063128840    -6.101704590   0.000000000       3
0.119223240    -7.596849500   0.000000000       1
-1.376892050   -5.182603740   0.000000000       2
-0.824371900   -3.460866440   0.000000000       3
-1.170571480   -1.270002100   0.000000000       3
-2.706933680   -0.417515780   0.000000000       2
-2.754569660   0.634858620    0.000000000       1
-3.637675640   -0.909967860   0.000000000       1
0.218091790    -0.234193970   0.000000000       2
1.872004100    -0.697162300   0.000000000       3
2.828001130    0.461464770    0.000000000       1
2.648150080    -2.255024470   0.000000000       2
1.391921380    -3.454727220   0.000000000       3
1.890840922    5.247514882    0.000000000       2
0.563469402    6.457719182    0.000000000       3
1.203470672    7.819037422    0.000000000       1
-1.522276538   5.787187832    0.000000000       3
-3.551839138   6.917304022    0.000000000       3
-3.397603368   8.077534232    0.940305280       1
-4.537773858   5.895383402    0.512613700       1
-3.968054098   7.393529872    -1.366678340      1
-1.455781118   3.513211212    0.000000000       3
-2.494829848   2.320151712    0.000000000       4
0.201210462    2.879236022    0.000000000       2
0.183193092    1.816791192    0.000000000       1
1.824813532    3.476306232    0.000000000       3
3.019829702    2.461881032    0.000000000       4
2.890878292    5.593021982    0.000000000       1
%endblock AtomicCoordinatesAndAtomicSpecies

%include ../../../Defaults.fdf
