# mpirun -np 6 siesta-4.1.5 < CG.fdf > GC.out &

SystemLabel      GC

NumberOfAtoms    29

NumberOfSpecies  4
%block ChemicalSpeciesLabel
    1    8  O
    2    7  N
    3   14  Si
    4    1  H
%endblock ChemicalSpeciesLabel

AtomicCoordinatesFormat NotScaledCartesianAng
%block AtomicCoordinatesAndAtomicSpecies
     0.894993910     3.939627430     0.000000000    1
    -3.111420400     0.860670200     0.000000000    2
     1.968584880     1.210816970     0.000000000    2
     1.019965700    -1.793459820     0.000000000    2
    -2.119192730    -1.991188730     0.000000000    2
     3.825385970    -1.075884590     0.000000000    2
    -1.305867610     1.013066320     0.000000000    3
    -0.559373680    -1.059261100     0.000000000    3
     0.493249090     2.387326300     0.000000000    3
     2.173368230    -0.539694730     0.000000000    3
    -3.475999460    -0.805240440     0.000000080    3
     2.864594030     1.791539180     0.000000000    4
    -4.837485490    -1.432398590     0.000000000    4
     4.035018220    -2.106387930     0.000000000    4
     4.660969810    -0.446849990     0.000000000    4
    -2.239018980    -3.044698020     0.000000000    4   ####
     4.444147430     4.768405160     0.000000000    3
     6.313106920     6.028048790     0.000000000    3
     5.854174540     2.026666940     0.000000000    3
     7.921767260     4.533258160     0.000000000    3
     4.503677380     3.083452700     0.000000000    2
     2.814148230     5.398465390     0.000000000    2
     7.498063410     2.817757350     0.000000000    2
     6.593470620     7.498271310     0.000000000    4
     9.417178640     4.752110700     0.000000000    4
     2.569689240     6.416931340     0.000000000    4
     1.987407050     4.741617260     0.000000000    4
     5.913450300     0.444224910     0.000000000    1
     8.269719000     2.090789990     0.000000000    4
%endblock AtomicCoordinatesAndAtomicSpecies

%block Geometry.Constraints
    molecule [1 -- 16] 0.0 0.0 1.0 # fix one of the molecules along z axis
    molecule [17 -- 29]
%endblock

%include ../../Defaults.fdf
