# mpirun -np 4 siesta-4.1.5 < AT.fdf > AT.out &

SystemLabel      AT

NumberOfAtoms    30

NumberOfSpecies  4
%block ChemicalSpeciesLabel
    1    1  H
    2    7  N
    3   14  Si
    4    8  O
%endblock ChemicalSpeciesLabel

############################################
# This overrides Defaults.fdf configuration
############################################
MD.TypeOfRun                Verlet # CG, Verlet
MD.Steps                    0
MaxSCFIterations            300

AtomicCoordinatesFormat NotScaledCartesianAng
%block AtomicCoordinatesAndAtomicSpecies
    2.28494382 -5.19529124 0.0  1  1  H
    1.37433094 -4.6647107 0.0  2  2  N
    -0.21830245 -5.49458215 0.0  3  3  Si
    -0.17484108 -6.98516892 0.0  1  4  H
    -1.66171682 -4.58600741 0.0  2  5  N
    -1.09026419 -2.87456374 0.0  3  6  Si
    -1.53038332 -0.70765692 0.0  3  7  Si
    -3.14415959 -0.09186471 0.0  2  8  N
    -3.40268075 0.95848335 0.0  1  9  H
    -3.95073599 -0.76720972 0.0  1  10  H
    -0.17836637 0.41349951 0.0  2  11  N
    1.49520211 -0.0473996 0.0  3  12  Si
    2.45603905 1.10727302 0.0  1  13  H
    2.30451743 -1.58574382 0.0  2  14  N
    1.10725559 -2.84610319 0.0  3  15  Si
    -0.009854204928056665 11.707541647326408 0.0  1  16  H
    -0.8185648849280567 11.015335767326409 0.0  2  17  N
    -2.4751547249280565 11.728455867326408 0.0  3  18  Si
    -2.3782895549280565 13.239181077326407 0.0  1  19  H
    -4.201311074928056 10.385407737326407 0.0  3  20  Si
    -6.555765324928057 10.37742080732641 0.0  3  21  Si
    -7.118183444928057 11.111910457326408 -1.20183078  1  22  H
    -6.855579074928057 8.898329677326409 -0.08618332  1  23  H
    -7.118295904928057 10.942253267326407 1.28814761  1  24  H
    -3.271920434928057 8.314836507326408 0.0  3  25  Si
    -4.221388794928057 7.026300377326407 0.0  4  26  O
    -1.4809755649280567 8.141101037326408 0.0  2  27  N
    -1.1499842049280566 7.108744057326408 0.0  1  28  H
    -0.1725173449280567 9.335647457326408 0.0  3  29  Si
    1.393419585071943 9.068400607326408 0.0  4  30  O
%endblock AtomicCoordinatesAndAtomicSpecies

%include ../../../../Defaults.fdf
