# mpirun -np 4 siesta-4.1.5 < AT.fdf > AT.out &

SystemLabel      AT

NumberOfAtoms    30

NumberOfSpecies  4
%block ChemicalSpeciesLabel
    1    1  H
    2    7  N
    3   14  Si
    4    8  O
%endblock ChemicalSpeciesLabel

############################################
# This overrides Defaults.fdf configuration
############################################
MD.TypeOfRun                Verlet # CG, Verlet
MD.Steps                    0
MaxSCFIterations            200
SCF.MustConverge            F

AtomicCoordinatesFormat NotScaledCartesianAng
%block AtomicCoordinatesAndAtomicSpecies
    2.28494382 -5.19529124 0.0  1  1  H
    1.37433094 -4.6647107 0.0  2  2  N
    -0.21830245 -5.49458215 0.0  3  3  Si
    -0.17484108 -6.98516892 0.0  1  4  H
    -1.66171682 -4.58600741 0.0  2  5  N
    -1.09026419 -2.87456374 0.0  3  6  Si
    -1.53038332 -0.70765692 0.0  3  7  Si
    -3.14415959 -0.09186471 0.0  2  8  N
    -3.40268075 0.95848335 0.0  1  9  H
    -3.95073599 -0.76720972 0.0  1  10  H
    -0.17836637 0.41349951 0.0  2  11  N
    1.49520211 -0.0473996 0.0  3  12  Si
    2.45603905 1.10727302 0.0  1  13  H
    2.30451743 -1.58574382 0.0  2  14  N
    1.10725559 -2.84610319 0.0  3  15  Si
    0.42445241562180724 8.592477969657113 0.0  1  16  H
    -0.38425826437819277 7.900272089657112 0.0  2  17  N
    -2.0408481043781928 8.613392189657112 0.0  3  18  Si
    -1.9439829343781927 10.124117399657113 0.0  1  19  H
    -3.767004454378193 7.270344059657112 0.0  3  20  Si
    -6.121458704378193 7.262357129657112 0.0  3  21  Si
    -6.683876824378193 7.996846779657112 -1.20183078  1  22  H
    -6.421272454378193 5.783265999657112 -0.08618332  1  23  H
    -6.6839892843781925 7.827189589657112 1.28814761  1  24  H
    -2.8376138143781926 5.199772829657112 0.0  3  25  Si
    -3.7870821743781926 3.9112366996571124 0.0  4  26  O
    -1.046668944378193 5.026037359657113 0.0  2  27  N
    -0.7156775843781927 3.9936803796571123 0.0  1  28  H
    0.2617892756218072 6.220583779657112 0.0  3  29  Si
    1.827726205621807 5.953336929657112 0.0  4  30  O
%endblock AtomicCoordinatesAndAtomicSpecies

#############
# Unit Cell
#############
LatticeConstant 1.0 Ang
%block LatticeVectors
    30.00000    0.000000    0.000000
    0.000000    45.00000    0.000000
    0.000000    0.000000    10.00000
%endblock LatticeVectors

%include ../../../../Defaults.fdf
