# mpirun -np 4 siesta-4.1.5 < GC.fdf > GC.out &

SystemLabel      GC

NumberOfAtoms    29

NumberOfSpecies  4
%block ChemicalSpeciesLabel
    1    1  H
    2    7  N
    3   14  Si
    4    8  O
%endblock ChemicalSpeciesLabel

############################################
# This overrides Defaults.fdf configuration
############################################
MD.TypeOfRun                CG # CG, Verlet
MD.Steps                    0
MaxSCFIterations            600

AtomicCoordinatesFormat NotScaledCartesianAng
%block AtomicCoordinatesAndAtomicSpecies
    1.2649161557335415 3.2544167219291555 -0.0  1  1  H
    0.5584294257335416 2.4643805419291556 -0.0  2  2  N
    -1.1718574842664584 2.9057444519291553 0.0  3  3  Si
    -1.3276371642664584 4.395736711929156 0.0  1  4  H
    -2.6951791042664586 1.3468369319291555 -0.0  3  5  Si
    -4.178366734266459 1.5896672919291557 -0.0  1  6  H
    -1.4967882442664584 -0.5664392280708445 -0.0  3  7  Si
    -2.2628137042664584 -2.0991559680708445 -0.0  2  8  N
    -1.6725671542664584 -3.0563689980708446 0.0  1  9  H
    -3.3144360242664583 -2.1796161980708444 -0.0  1  10  H
    0.21941181573354157 -0.5112649180708445 0.0  2  11  N
    1.2944344357335416 0.8190739219291556 -0.0  3  12  Si
    2.9031077557335414 0.8002636619291557 -0.0  4  13  O
    5.6164483 -7.44953905 0.0  1  14  H
    4.58206954 -7.2320376 0.0  2  15  N
    3.29666389 -8.492636 0.0  3  16  Si
    3.80117524 -9.90371886 -0.0  1  17  H
    1.65934232 -8.01362137 0.0  2  18  N
    1.68097912 -6.20463398 -0.0  3  19  Si
    0.54543521 -4.28636135 0.0  3  20  Si
    -1.03431493 -3.94450034 0.0  4  21  O
    1.73226934 -2.87719605 0.0  2  22  N
    1.20957366 -1.92961761 -0.0  1  23  H
    3.50853448 -2.77677601 0.0  3  24  Si
    4.13684451 -1.17938608 0.0  2  25  N
    3.54296161 -0.26248101 0.0  1  26  H
    5.18364407 -1.05231197 -0.0  1  27  H
    4.63288658 -4.07521596 -0.0  2  28  N
    3.79410501 -5.58634043 0.0  3  29  Si
%endblock AtomicCoordinatesAndAtomicSpecies

%include ../../../../Defaults.fdf