# mpirun -np 4 siesta-4.1.5 < GC.fdf > GC.out &

SystemLabel      GC

NumberOfAtoms    29

NumberOfSpecies  4
%block ChemicalSpeciesLabel
    1    1  H
    2    7  N
    3   14  Si
    4    8  O
%endblock ChemicalSpeciesLabel

############################################
# This overrides Defaults.fdf configuration
############################################
MD.TypeOfRun                Verlet # CG, Verlet
MD.Steps                    0
MaxSCFIterations            200
SCF.MustConverge            F

AtomicCoordinatesFormat NotScaledCartesianAng
%block AtomicCoordinatesAndAtomicSpecies
    1.2177254654384249 3.3246506315674482 -0.0  1  1  H
    0.5112387354384249 2.5346144515674487 -0.0  2  2  N
    -1.219048174561575 2.9759783615674484 0.0  3  3  Si
    -1.374827854561575 4.465970621567449 0.0  1  4  H
    -2.7423697945615753 1.4170708415674482 -0.0  3  5  Si
    -4.2255574245615755 1.6599012015674484 -0.0  1  6  H
    -1.543978934561575 -0.4962053184325517 -0.0  3  7  Si
    -2.310004394561575 -2.028922058432552 -0.0  2  8  N
    -1.719757844561575 -2.986135088432552 0.0  1  9  H
    -3.361626714561575 -2.1093822884325517 -0.0  1  10  H
    0.17222112543842488 -0.4410310084325517 0.0  2  11  N
    1.2472437454384249 0.8893078315674483 -0.0  3  12  Si
    2.8559170654384247 0.8704975715674483 -0.0  4  13  O
    5.6164483 -7.44953905 0.0  1  14  H
    4.58206954 -7.2320376 0.0  2  15  N
    3.29666389 -8.492636 0.0  3  16  Si
    3.80117524 -9.90371886 -0.0  1  17  H
    1.65934232 -8.01362137 0.0  2  18  N
    1.68097912 -6.20463398 -0.0  3  19  Si
    0.54543521 -4.28636135 0.0  3  20  Si
    -1.03431493 -3.94450034 0.0  4  21  O
    1.73226934 -2.87719605 0.0  2  22  N
    1.20957366 -1.92961761 -0.0  1  23  H
    3.50853448 -2.77677601 0.0  3  24  Si
    4.13684451 -1.17938608 0.0  2  25  N
    3.54296161 -0.26248101 0.0  1  26  H
    5.18364407 -1.05231197 -0.0  1  27  H
    4.63288658 -4.07521596 -0.0  2  28  N
    3.79410501 -5.58634043 0.0  3  29  Si
%endblock AtomicCoordinatesAndAtomicSpecies

#############
# Unit Cell
#############
LatticeConstant 1.0 Ang
%block LatticeVectors
    30.00000    0.000000    0.000000
    0.000000    45.00000    0.000000
    0.000000    0.000000    10.00000
%endblock LatticeVectors

%include ../../../../Defaults.fdf