# mpirun -np 8 siesta-5 < 1G.fdf > 1G.out

SystemLabel      1G

NumberOfAtoms    69

NumberOfSpecies  5
%block ChemicalSpeciesLabel
    1    1  H ../../../../Pseudos/PBE/H/H.psf
    2    8  O ../../../../Pseudos/PBE/O/O.psf
    3   15  P ../../../../Pseudos/PBE/P/P.psf
    4    6  C ../../../../Pseudos/PBE/C/C.psf
    5    7  N ../../../../Pseudos/PBE/N/N.psf
%endblock ChemicalSpeciesLabel

############################################
# This overrides Defaults.fdf configuration
############################################
MD.TypeOfRun                Verlet # CG, Verlet
MD.Steps                    2000
MD.Quench                   True
SCF.H.Tolerance             0.00005 eV
SCF.DM.Tolerance            0.00005
MD.MaxForceTol              0.005 eV/Ang

SCF.MustConverge            F
MD.LengthTimeStep           0.5 fs

#weight 0.07
SCF.Mixer.Restart.Save      4
SCF.Mixer.History           10
SCF.Mixer.Weight        0.1

AtomicCoordinatesFormat NotScaledCartesianAng
%block AtomicCoordinatesAndAtomicSpecies
    -1.547000000     9.377430000    -1.216440000    1
    -1.440000000     8.895990000    -0.400590000    2
     0.000000000     8.910000000     0.000000000    3
     0.220000000    10.172580000     0.733690000    2
     0.790000000     8.731480000    -1.239360000    2
     0.250000000     7.668720000     0.971400000    2
    -0.690000000     7.423090000     2.046410000    4
     0.040000000     6.860590000     3.246610000    4
     0.250000000     5.428470000     3.036460000    2
     1.440000000     7.411960000     3.507530000    4
     1.830000000     7.270730000     4.868160000    2
     2.320000000     6.527300000     2.637410000    4
     1.610000000     5.184200000     2.731980000    4
     1.660000000     4.387620000     1.478400000    5
     1.580000000     4.816050000     0.168630000    4
     1.660000000     3.854540000    -0.713360000    5
     1.800000000     2.699400000     0.056700000    4
     1.930000000     1.348150000    -0.338500000    4
     1.950000000     0.869550000    -1.471250000    2
     2.050000000     0.496300000     0.774650000    5
     2.050000000     0.908400000     2.091220000    4
     2.180000000    -0.051780000     3.009550000    5
     1.920000000     2.178750000     2.465190000    5
     1.800000000     3.019880000     1.403300000    4
    -1.179000000     8.368030000     2.324930000    1
    -1.449000000     6.701970000     1.711290000    1
    -0.582000000     7.035510000     4.131680000    1
     2.073000000     4.594980000     3.544150000    1
     2.352000000     6.888980000     1.598480000    1
     3.344000000     6.467490000     3.036870000    1
     1.510000000     8.469080000     3.207140000    1
     1.461000000     5.864050000    -0.105560000    1
     2.143000000    -0.483660000     0.597850000    1
     2.180000000     0.187870000     4.011600000    1
     2.281000000    -1.035850000     2.717260000    1
     1.699000000     6.361320000     5.144160000    1
     5.721000000    -9.073200000    -2.852390000    1
     5.601000000    -8.676390000    -2.000360000    2
     4.160000000    -8.763500000    -1.609110000    3
     3.940000000   -10.138810000    -1.115610000    2
     3.370000000    -8.365030000    -2.796170000    2
     3.910000000    -7.719060000    -0.429570000    2
     4.850000000    -7.671480000     0.673690000    4
     4.120000000    -7.336660000     1.948510000    4
     3.910000000    -5.888160000     2.007590000    2
     2.720000000    -7.925260000     2.104830000    4
     2.330000000    -8.030630000     3.476930000    2
     1.840000000    -6.896020000     1.416520000    4
     2.550000000    -5.592010000     1.751850000    4
     2.500000000    -4.582350000     0.662550000    5
     2.350000000    -3.244510000     1.016430000    4
     2.260000000    -2.949580000     2.217220000    2
     2.300000000    -2.304080000    -0.165240000    5
     2.400000000    -2.660480000    -1.251180000    4
     2.350000000    -1.707870000    -2.168130000    5
     2.550000000    -4.027320000    -1.644130000    4
     2.600000000    -4.948800000    -0.639910000    4
     5.340000000    -8.650170000     0.777070000    1
     5.610000000    -6.901730000     0.474150000    1
     4.743000000    -7.666420000     2.794920000    1
     2.088000000    -5.162540000     2.652290000    1
     1.808000000    -7.065320000     0.329430000    1
     0.817000000    -6.910230000     1.820470000    1
     2.651000000    -8.908730000     1.626570000    1
     2.723000000    -6.001040000    -0.892200000    1
     2.621000000    -4.317330000    -2.692290000    1
     2.233000000    -0.724830000    -1.884400000    1
     2.429000000    -1.947160000    -3.167340000    1
     1.613000000    -8.663220000     3.556940000    1
%endblock AtomicCoordinatesAndAtomicSpecies

#############
# Unit Cell
#############
#LatticeConstant 1.0 Ang
#%block LatticeVectors
#    11.967244    0.000000    0.000000
#    0.000000   11.966144    0.000000
#    0.000000    0.000000   11.191744
#%endblock LatticeVectors

%include ../../../../Defaults.fdf