# mpirun -np 4 siesta-4.1.5 < GC.fdf > GC.out &

SystemLabel      GC

NumberOfAtoms    29

NumberOfSpecies  4
%block ChemicalSpeciesLabel
    1    1  H
    2    7  N
    3   14  Si
    4    8  O
%endblock ChemicalSpeciesLabel

############################################
# This overrides Defaults.fdf configuration
############################################
MD.TypeOfRun                Verlet # CG, Verlet
MD.Steps                    600
MD.Quench                   True

AtomicCoordinatesFormat NotScaledCartesianAng
%block AtomicCoordinatesAndAtomicSpecies
     0.994464070     3.498746320     0.000000000    1
     0.259906920     2.737385230     0.000000000    2
    -1.437507070     3.230761290     0.000000000    3
    -1.566591980     4.739602100     0.000000000    1
    -2.969396260     1.658637020     0.000000000    3
    -4.449685510     1.879703210     0.000000000    1
    -1.740335330    -0.229425440     0.000000000    3
    -2.496058660    -1.811594860     0.000000000    2
    -1.897271000    -2.682726810     0.000000000    1
    -3.539310860    -1.968863490     0.000000000    1
    -0.048874610    -0.242793530     0.000000000    2
     1.045678920     1.088823300     0.000000000    3
     2.634591950     1.162776960     0.000000000    4
     5.618584280    -7.471168770     0.000000000    1
     4.592833520    -7.225446390     0.000000000    2
     3.291649650    -8.467300080     0.000000000    3
     3.777995310    -9.874946910     0.000000000    1
     1.659650280    -7.981579260     0.000000000    2
     1.707276670    -6.179433650     0.000000000    3
     0.503997240    -4.303174060     0.000000000    3
    -1.038608120    -3.913933130     0.000000000    4
     1.746036330    -2.893023420     0.000000000    2
     1.236340950    -1.958554980     0.000000000    1
     3.502147040    -2.796873440     0.000000000    3
     4.136974590    -1.174846070     0.000000000    2
     3.601705680    -0.269733710     0.000000000    1
     5.181123730    -1.067315770     0.000000000    1
     4.663441640    -4.046335910     0.000000000    2
     3.818851270    -5.576334390     0.000000000    3
%endblock AtomicCoordinatesAndAtomicSpecies

#############
# Unit Cell
#############
LatticeConstant 1.0 Ang
%block LatticeVectors
    18.663680   0.000000     0.000000
    0.000000    23.664587    0.000000
    0.000000    0.000000     9.854683
%endblock LatticeVectors

%include ../../../../Defaults.fdf