SystemLabel      GC

NumberOfAtoms    29

NumberOfSpecies  4
%block ChemicalSpeciesLabel
    1    8  O
    2    7  N
    3   14  Si
    4    1  H
%endblock ChemicalSpeciesLabel

# Single point calculation
MD.TypeOfRun                CG
MD.Steps                    0
SCF.MustConverge            F # In case it does not. There can be 2 very close atoms

AtomicCoordinatesFormat NotScaledCartesianAng
%block AtomicCoordinatesAndAtomicSpecies
0.854927710    3.902811360    0.000000000       1
-3.151486600   0.823854130    0.000000000       2
1.928518680    1.174000900    0.000000000       2
0.979899500    -1.830275890   0.000000000       2
-2.159258930   -2.028004800   0.000000000       2
3.785319770    -1.112700660   0.000000000       2
-1.345933810   0.976250250    0.000000000       3
-0.599439880   -1.096077170   0.000000000       3
0.453182890    2.350510230    0.000000000       3
2.133302030    -0.576510800   0.000000000       3
-3.516065660   -0.842056510   0.000000000       3
2.824527830    1.754723110    0.000000000       4
-4.877551690   -1.469214660   0.000000000       4
3.994952020    -2.143204000   0.000000000       4
4.620903610    -0.483666060   0.000000000       4
-2.279085180   -3.081514090   0.000000000       4
6.234426795    6.035768689    -0.000000000      3
8.103386285    7.295412319    -0.000000000      3
7.644453905    3.294030469    -0.000000000      3
9.712046625    5.800621689    -0.000000000      3
6.293956745    4.350816229    -0.000000000      2
4.604427595    6.665828919    -0.000000000      2
9.288342775    4.085120879    -0.000000000      2
8.383749985    8.765634839    -0.000000000      4
11.207458005   6.019474229    -0.000000000      4
4.359968605    7.684294869    -0.000000000      4
3.777686415    6.008980789    -0.000000000      4
7.703729665    1.711588439    -0.000000000      1
10.059998365   3.358153519    -0.000000000      4
%endblock AtomicCoordinatesAndAtomicSpecies

%include ../../../Defaults.fdf
