# mpirun -np 4 siesta-4.1.5 < AT.fdf > AT.out &

SystemLabel      AT

NumberOfAtoms    30

NumberOfSpecies  4
%block ChemicalSpeciesLabel
    1    1  H
    2    7  N
    3   14  Si
    4    8  O
%endblock ChemicalSpeciesLabel

############################################
# This overrides Defaults.fdf configuration
############################################
MD.TypeOfRun                Verlet # CG, Verlet
MD.Steps                    0
MaxSCFIterations            300

AtomicCoordinatesFormat NotScaledCartesianAng
%block AtomicCoordinatesAndAtomicSpecies
    2.28494382 -5.19529124 0.0  1  1  H
    1.37433094 -4.6647107 0.0  2  2  N
    -0.21830245 -5.49458215 0.0  3  3  Si
    -0.17484108 -6.98516892 0.0  1  4  H
    -1.66171682 -4.58600741 0.0  2  5  N
    -1.09026419 -2.87456374 0.0  3  6  Si
    -1.53038332 -0.70765692 0.0  3  7  Si
    -3.14415959 -0.09186471 0.0  2  8  N
    -3.40268075 0.95848335 0.0  1  9  H
    -3.95073599 -0.76720972 0.0  1  10  H
    -0.17836637 0.41349951 0.0  2  11  N
    1.49520211 -0.0473996 0.0  3  12  Si
    2.45603905 1.10727302 0.0  1  13  H
    2.30451743 -1.58574382 0.0  2  14  N
    1.10725559 -2.84610319 0.0  3  15  Si
    0.7859187324107589 5.99986127708959 0.0  1  16  H
    -0.022791947589241107 5.307655397089589 0.0  2  17  N
    -1.6793817875892412 6.0207754970895895 0.0  3  18  Si
    -1.5825166175892411 7.531500707089589 0.0  1  19  H
    -3.405538137589241 4.677727367089589 0.0  3  20  Si
    -5.759992387589241 4.669740437089589 0.0  3  21  Si
    -6.322410507589241 5.404230087089589 -1.20183078  1  22  H
    -6.059806137589241 3.190649307089589 -0.08618332  1  23  H
    -6.322522967589241 5.234572897089589 1.28814761  1  24  H
    -2.476147497589241 2.6071561370895893 0.0  3  25  Si
    -3.425615857589241 1.3186200070895888 0.0  4  26  O
    -0.6852026275892411 2.433420667089589 0.0  2  27  N
    -0.35421126758924104 1.4010636870895892 0.0  1  28  H
    0.6232555924107589 3.627967087089589 0.0  3  29  Si
    2.189192522410759 3.3607202370895894 0.0  4  30  O
%endblock AtomicCoordinatesAndAtomicSpecies

%include ../../../../Defaults.fdf
