# mpirun -np 4 siesta-4.1.5 < AT.fdf > AT.out &

SystemLabel      AT

NumberOfAtoms    30

NumberOfSpecies  4
%block ChemicalSpeciesLabel
    1    1  H
    2    7  N
    3   14  Si
    4    8  O
%endblock ChemicalSpeciesLabel

############################################
# This overrides Defaults.fdf configuration
############################################
MD.TypeOfRun                Verlet # CG, Verlet
MD.Steps                    0
MaxSCFIterations            200
SCF.MustConverge            F

AtomicCoordinatesFormat NotScaledCartesianAng
%block AtomicCoordinatesAndAtomicSpecies
    2.28494382 -5.19529124 0.0  1  1  H
    1.37433094 -4.6647107 0.0  2  2  N
    -0.21830245 -5.49458215 0.0  3  3  Si
    -0.17484108 -6.98516892 0.0  1  4  H
    -1.66171682 -4.58600741 0.0  2  5  N
    -1.09026419 -2.87456374 0.0  3  6  Si
    -1.53038332 -0.70765692 0.0  3  7  Si
    -3.14415959 -0.09186471 0.0  2  8  N
    -3.40268075 0.95848335 0.0  1  9  H
    -3.95073599 -0.76720972 0.0  1  10  H
    -0.17836637 0.41349951 0.0  2  11  N
    1.49520211 -0.0473996 0.0  3  12  Si
    2.45603905 1.10727302 0.0  1  13  H
    2.30451743 -1.58574382 0.0  2  14  N
    1.10725559 -2.84610319 0.0  3  15  Si
    0.7724642179343876 6.096363764877956 0.0  1  16  H
    -0.03624646206561244 5.4041578848779555 0.0  2  17  N
    -1.6928363020656123 6.117277984877956 0.0  3  18  Si
    -1.5959711320656123 7.628003194877955 0.0  1  19  H
    -3.4189926520656124 4.774229854877955 0.0  3  20  Si
    -5.773446902065612 4.766242924877956 0.0  3  21  Si
    -6.3358650220656125 5.500732574877955 -1.20183078  1  22  H
    -6.0732606520656125 3.287151794877955 -0.08618332  1  23  H
    -6.335977482065612 5.3310753848779555 1.28814761  1  24  H
    -2.4896020120656126 2.7036586248779555 0.0  3  25  Si
    -3.4390703720656126 1.4151224948779555 0.0  4  26  O
    -0.6986571420656125 2.529923154877956 0.0  2  27  N
    -0.3676657820656124 1.4975661748779558 0.0  1  28  H
    0.6098010779343875 3.724469574877955 0.0  3  29  Si
    2.1757380079343873 3.4572227248779557 0.0  4  30  O
%endblock AtomicCoordinatesAndAtomicSpecies

#############
# Unit Cell
#############
LatticeConstant 1.0 Ang
%block LatticeVectors
    30.00000    0.000000    0.000000
    0.000000    45.00000    0.000000
    0.000000    0.000000    10.00000
%endblock LatticeVectors

%include ../../../../Defaults.fdf
