# mpirun -np 4 siesta-4.1.5 < GC.fdf > GC.out &

SystemLabel      GC

NumberOfAtoms    29

NumberOfSpecies  4
%block ChemicalSpeciesLabel
    1    1  H
    2    7  N
    3   14  Si
    4    8  O
%endblock ChemicalSpeciesLabel

############################################
# This overrides Defaults.fdf configuration
############################################
MD.TypeOfRun                CG # CG, Verlet
MD.Steps                    0
MaxSCFIterations            600

AtomicCoordinatesFormat NotScaledCartesianAng
%block AtomicCoordinatesAndAtomicSpecies
    -0.31313563075496487 5.603031372057493 0.0  1  1  H
    -1.0196223607549648 4.8129951920574925 0.0  2  2  N
    -2.749909270754965 5.254359102057492 0.0  3  3  Si
    -2.905688950754965 6.744351362057493 0.0  1  4  H
    -4.273230890754965 3.6954515820574927 0.0  3  5  Si
    -5.756418520754965 3.938281942057493 0.0  1  6  H
    -3.074840030754965 1.7821754220574928 0.0  3  7  Si
    -3.8408654907549646 0.24945868205749266 0.0  2  8  N
    -3.250618940754965 -0.7077543479425072 0.0  1  9  H
    -4.8924878107549645 0.16899845205749275 0.0  1  10  H
    -1.3586399707549648 1.8373497320574927 0.0  2  11  N
    -0.28361735075496486 3.167688572057493 0.0  3  12  Si
    1.325055969245035 3.1488783120574926 0.0  4  13  O
    5.6164483 -7.44953905 0.0  1  14  H
    4.58206954 -7.2320376 0.0  2  15  N
    3.29666389 -8.492636 0.0  3  16  Si
    3.80117524 -9.90371886 -0.0  1  17  H
    1.65934232 -8.01362137 0.0  2  18  N
    1.68097912 -6.20463398 -0.0  3  19  Si
    0.54543521 -4.28636135 0.0  3  20  Si
    -1.03431493 -3.94450034 0.0  4  21  O
    1.73226934 -2.87719605 0.0  2  22  N
    1.20957366 -1.92961761 -0.0  1  23  H
    3.50853448 -2.77677601 0.0  3  24  Si
    4.13684451 -1.17938608 0.0  2  25  N
    3.54296161 -0.26248101 0.0  1  26  H
    5.18364407 -1.05231197 -0.0  1  27  H
    4.63288658 -4.07521596 -0.0  2  28  N
    3.79410501 -5.58634043 0.0  3  29  Si
%endblock AtomicCoordinatesAndAtomicSpecies

%include ../../../../Defaults.fdf