SystemLabel      Verlet

NumberOfAtoms    195

NumberOfSpecies  5
%block ChemicalSpeciesLabel
    1   14  Si
    2    1  H
    3    8  O
    4    7  N
    5   15  P
%endblock ChemicalSpeciesLabel

AtomicCoordinatesFormat NotScaledCartesianAng
%block AtomicCoordinatesAndAtomicSpecies
   -1.77687913   17.09623471    2.97081153   1       1  Si
   -2.52890954   16.06072734    3.81717634   2       2  H
   -1.31477914   18.20300276    3.89980883   2       3  H
    0.25632255   16.05223163    2.21643556   1       4  Si
    1.07409509   16.16134396    3.48609595   2       5  H
    0.17429967   14.31633753    1.86653528   3       6  O
   -0.16180059   13.77915917    0.23449373   1       7  Si
    0.87252029   12.76305390   -0.16079289   2       8  H
    1.00978531   17.15554604    0.24367047   1       9  Si
    0.51925760   18.58318716    0.24560081   2      10  H
   -0.23691370   15.70524532   -1.16976055   1      11  Si
   -1.65539300   16.21735042   -1.36353788   2      12  H
    0.35936085   15.34864655   -2.51671527   2      13  H
   -0.24336358    1.99346674    0.13563988   4      14  N
   -1.82828803    1.12570464    0.17915133   1      15  Si
   -1.76858957   -0.36113375    0.03501594   2      16  H
   -3.31944693    1.99672484    0.21632957   4      17  N
   -2.83508572    3.69454279    0.32298285   1      18  Si
   -3.51660615    5.85314734    0.20690226   1      19  Si
   -5.01474024    6.41967729    0.16996237   3      20  O
   -2.04856029    6.91751581    0.22296298   4      21  N
   -2.31805035    7.97810320    0.22565097   2      22  H
   -0.28225836    6.60668906    0.21672209   1      23  Si
    0.68070720    8.01663480    0.23099991   4      24  N
    0.33271747    9.09163230    0.19673846   2      25  H
    1.72897593    7.88355466    0.18456549   2      26  H
    0.50668167    5.06929698    0.21910052   4      27  N
   -0.58956316    3.75386695    0.22276845   1      28  Si
   -1.78597680   12.79873374    0.22362057   4      29  N
   -3.35483754   13.64075781    0.21469831   1      30  Si
   -3.10011331   15.10290274    0.01810277   2      31  H
   -5.23539807   12.50097533    0.11600717   1      32  Si
   -6.60333084   13.09786219    0.25637594   2      33  H
   -4.61930258   10.34701265    0.21976516   1      34  Si
   -5.75681436    9.05435450    0.22065213   4      35  N
   -5.48460309    7.99693596    0.17722731   2      36  H
   -6.78325313    9.27856733    0.17052224   2      37  H
   -2.94846101    9.90886862    0.23871490   4      38  N
   -1.62884003   11.00945368    0.23993568   1      39  Si
   -0.08846649   10.58028785    0.17038553   3      40  O
   -1.58400753   -2.51505412   -1.27690743   3      41  O
   -0.37230097   -2.01282056   -2.44943420   1      42  Si
   -0.97021443   -0.94278533   -3.34402810   2      43  H
   -0.00029027   -3.20850553   -3.31457810   2      44  H
    1.69795852   -1.25711906   -1.49727344   1      45  Si
    2.64244833   -1.56078237   -2.63583883   2      46  H
    1.84622451    0.51771092   -1.27154509   3      47  O
    1.46692043    1.19121209    0.27949168   1      48  Si
    2.28875333    2.42955919    0.50937173   2      49  H
    2.21083645   -2.26062183    0.61337040   1      50  Si
    1.58806006   -3.63860376    0.76444819   2      51  H
    1.23619809   -0.53441336    1.90670589   1      52  Si
   -0.26531380   -0.60837280    2.12350792   2      53  H
    1.84878932   -0.17448537    3.22913220   2      54  H
   -2.90692860   17.69950006    1.78489021   3      55  O
   -4.31286249   18.64729224    3.82127427   3      56  O
   -4.10166209   18.96773875    2.09552524   5      57  P
   -3.43438405   20.38055344    1.87236915   3      58  O
   -5.44994999   18.73646221    1.28052956   3      59  O
    2.72622182   17.09042739   -0.08526992   3      60  O
    3.95868403   -2.16904064    0.77189132   3      61  O
    4.38281829   -2.27611991    2.52456987   5      62  P
    5.80186060   -2.94483873    2.63456413   3      63  O
    3.08588903   -2.77396077    3.30913054   3      64  O
   -2.37568889   -2.94931884   -1.69935906   2      65  H
    2.99516300   17.67517290   -0.84647148   2      66  H
   -7.22432536   15.35906663    6.93500977   1      67  Si
   -7.21871161   14.05440673    7.73691460   2      68  H
   -7.61533609   16.48776863    7.85861813   2      69  H
   -4.95097106   15.78122934    6.25307909   1      70  Si
   -4.31546745   16.22316862    7.56449360   2      71  H
   -4.13797286   14.22933002    5.94766249   3      72  O
   -3.92519850   13.56822756    4.35904447   1      73  Si
   -2.46820047   13.35966388    4.06890345   2      74  H
   -5.19788586   17.17980014    4.28648515   1      75  Si
   -6.65544032   17.57271961    4.35793811   2      76  H
   -5.09110097   15.16409121    2.99347128   1      77  Si
   -6.51535112   14.66280538    2.80282678   2      78  H
   -4.48951483   15.26850544    1.61595869   2      79  H
    2.84129543    3.94433853    4.29761639   4      80  N
    2.05018066    2.32754827    4.39180011   1      81  Si
    2.97500996    1.15822819    4.39218862   2      82  H
    0.32659962    2.18519936    4.42996596   4      83  N
   -0.25534931    3.85694720    4.42594411   1      84  Si
   -2.04674197    5.22720511    4.51154833   1      85  Si
   -3.60684342    4.85893995    4.50463195   3      86  O
   -1.44689583    6.93419213    4.41572406   4      87  N
   -2.28969483    7.63267297    4.42099086   2      88  H
    0.17950841    7.69119806    4.41165867   1      89  Si
    0.14270533    9.38817776    4.51141887   4      90  N
   -0.78682570   10.05510797    4.42501047   2      91  H
    1.06334936    9.89094833    4.42110312   2      92  H
    1.71103188    6.89582539    4.37205156   4      93  N
    1.55072540    5.18851176    4.41472068   1      94  Si
   -4.62324109   11.80529990    4.39477781   4      95  N
   -6.39668828   11.59212363    4.44544813   1      96  Si
   -7.03165471   12.92927130    4.22585531   2      97  H
   -7.32473442    9.59625476    4.32139247   1      98  Si
   -8.77570296    9.28266717    4.54784048   2      99  H
   -5.58329835    8.18170569    4.46045891   1     100  Si
   -5.78639306    6.47233929    4.48183521   4     101  N
   -4.94246304    5.77890311    4.49745095   2     102  H
   -6.75246055    6.05254837    4.43524219   2     103  H
   -3.96141929    8.78753351    4.47252780   4     104  N
   -3.46798354   10.43217818    4.42906807   1     105  Si
   -1.93809897   10.92880312    4.33482777   3     106  O
    4.40314355   -0.52321836    2.88634379   3     107  O
    5.10193898    0.55557609    1.68659076   1     108  Si
    3.98383952    1.02455930    0.76739359   2     109  H
    6.16240196   -0.15346363    0.87249446   2     110  H
    6.30268801    2.43991587    2.59663248   1     111  Si
    7.29703090    2.78402407    1.51032844   2     112  H
    5.45551259    3.98700786    2.89240893   3     113  O
    4.69933756    4.31892741    4.41450566   1     114  Si
    4.57738332    5.81163431    4.50551751   2     115  H
    7.24321119    1.88591472    4.71330081   1     116  Si
    7.57294198    0.43052223    4.84597839   2     117  H
    5.48559194    2.74744389    6.04083794   1     118  Si
    4.30778976    1.79203731    6.11988381   2     119  H
    5.72355302    3.27783928    7.41678864   2     120  H
   -8.45429180   15.09586552    5.69298243   3     121  O
  -10.17855743   15.39428087    5.96856574   5     122  P
  -10.55934520   16.91325513    5.77961788   3     123  O
  -11.25622283   14.48995820    5.18998378   3     124  O
    8.62519859    2.94868335    4.93388431   3     125  O
    8.98640579    3.17009264    6.63594790   5     126  P
   10.55061516    3.38482519    6.79909188   3     127  O
    8.27555615    2.00292025    7.47398745   3     128  O
  -10.61416862   10.78655025   10.84617535   1     129  Si
   -9.86701409    9.72150131   11.63662048   2     130  H
  -11.52885107   11.60451227   11.73222131   2     131  H
   -9.03755405   12.48905060   10.17412793   1     132  Si
   -8.89043129   13.27766954   11.46221321   2     133  H
   -7.39662181   11.88473373    9.85762938   3     134  O
   -6.95936896   11.28221678    8.28914525   1     135  Si
   -5.64646554   11.87658822    7.88366334   2     136  H
  -10.08655029   13.40789226    8.21976429   1     137  Si
  -11.53380435   12.99809116    8.25585538   2     138  H
   -8.85132783   11.83528929    6.92780148   1     139  Si
   -9.68437634   10.58139810    6.71375875   2     140  H
   -8.52886373   12.35609804    5.55203000   2     141  H
    4.06605679    7.50752946    8.22276544   4     142  N
    4.36335350    5.72306310    8.28164538   1     143  Si
    5.79635317    5.30301196    8.22067942   2     144  H
    3.04287653    4.60354724    8.28073151   4     145  N
    1.59747837    5.62258931    8.14982435   1     146  Si
   -0.64863900    5.73585882    8.32736168   1     147  Si
   -1.67268645    4.51187393    8.32934179   3     148  O
   -1.17943034    7.46394896    8.28239744   4     149  N
   -2.26865106    7.53425402    8.30680907   2     150  H
   -0.28202684    9.01494436    8.26830016   1     151  Si
   -1.27825937   10.39085597    8.32864188   4     152  N
   -2.38989970   10.34205890    8.33367963   2     153  H
   -0.83029532   11.34581389    8.31359624   2     154  H
    1.43022052    9.23065233    8.27115053   4     155  N
    2.29154487    7.75883998    8.20513741   1     156  Si
   -6.64322390    9.41058340    8.40600367   4     157  N
   -7.96823942    8.19567839    8.40814656   1     158  Si
   -9.33095111    8.84756129    8.41547540   2     159  H
   -7.53711411    6.04211602    8.38062762   1     160  Si
   -8.57105719    4.95587579    8.40466746   2     161  H
   -5.29025195    5.87764493    8.35738795   1     162  Si
   -4.43339557    4.38160331    8.37999586   4     163  N
   -3.34594174    4.33854609    8.33083564   2     164  H
   -4.93614394    3.45759292    8.36391586   2     165  H
   -4.33734117    7.32002002    8.35807480   4     166  N
   -4.90483425    8.93734054    8.36116714   1     167  Si
   -3.95956914   10.23443211    8.32940752   3     168  O
  -13.06927578    8.13146965   11.81210591   2     169  H
    7.83998280    4.67967078    6.79964189   3     170  O
    7.86854292    5.96236513    5.61601650   1     171  Si
    6.70852984    5.73056984    4.66593017   2     172  H
    9.15643884    5.99886412    4.82871475   2     173  H
    7.73962731    8.21098911    6.50556860   1     174  Si
    8.35324587    9.03171085    5.38812086   2     175  H
    6.16287305    9.01817179    6.80183688   3     176  O
    5.39144351    8.86002777    8.34169831   1     177  Si
    4.53596687   10.08317968    8.53185485   2     178  H
    8.84156963    8.30609449    8.62860607   1     179  Si
    9.95061190    7.28739659    8.75828139   2     180  H
    6.91369680    8.03974286    9.96866795   1     181  Si
    6.51580621    6.58780310   10.11648165   2     182  H
    6.77636488    8.75304839   11.29195208   2     183  H
  -11.61263603    9.97853251    9.60658212   3     184  O
  -12.93896578    9.10554423   11.64144144   3     185  O
  -13.12144899    9.35968459    9.95427797   5     186  P
  -14.17096007   10.49613382    9.69022766   3     187  O
  -13.37770825    8.06909350    9.09801224   3     188  O
  -10.12102938   15.09066365    7.65004553   3     189  O
    9.33056224    9.97562580    8.84081750   3     190  O
    9.58077578   10.39453851   10.48833589   5     191  P
   10.82005443   11.36161791   10.62441368   3     192  O
    9.67983051    9.02604115   11.30186801   3     193  O
    8.01531417   11.10436921   10.79304589   3     194  O
    8.01232956   11.97034871   10.28940055   2     195  H

%endblock AtomicCoordinatesAndAtomicSpecies

%include ../defaults2.fdf




