# mpirun -np 4 siesta-4.1.5 < AT.fdf > AT.out &

SystemLabel      AT

NumberOfAtoms    30

NumberOfSpecies  4
%block ChemicalSpeciesLabel
    1    1  H
    2    7  N
    3   14  Si
    4    8  O
%endblock ChemicalSpeciesLabel

############################################
# This overrides Defaults.fdf configuration
############################################
MD.TypeOfRun                Verlet # CG, Verlet
MD.Steps                    0
MaxSCFIterations            300

AtomicCoordinatesFormat NotScaledCartesianAng
%block AtomicCoordinatesAndAtomicSpecies
    2.28494382 -5.19529124 0.0  1  1  H
    1.37433094 -4.6647107 0.0  2  2  N
    -0.21830245 -5.49458215 0.0  3  3  Si
    -0.17484108 -6.98516892 0.0  1  4  H
    -1.66171682 -4.58600741 0.0  2  5  N
    -1.09026419 -2.87456374 0.0  3  6  Si
    -1.53038332 -0.70765692 0.0  3  7  Si
    -3.14415959 -0.09186471 0.0  2  8  N
    -3.40268075 0.95848335 0.0  1  9  H
    -3.95073599 -0.76720972 0.0  1  10  H
    -0.17836637 0.41349951 0.0  2  11  N
    1.49520211 -0.0473996 0.0  3  12  Si
    2.45603905 1.10727302 0.0  1  13  H
    2.30451743 -1.58574382 0.0  2  14  N
    1.10725559 -2.84610319 0.0  3  15  Si
    -0.03195900874302371 11.866088324277431 0.0  1  16  H
    -0.8406696887430237 11.173882444277432 0.0  2  17  N
    -2.4972595287430237 11.887002544277431 0.0  3  18  Si
    -2.4003943587430236 13.39772775427743 0.0  1  19  H
    -4.223415878743023 10.54395441427743 0.0  3  20  Si
    -6.577870128743024 10.535967484277432 0.0  3  21  Si
    -7.140288248743024 11.27045713427743 -1.20183078  1  22  H
    -6.877683878743024 9.056876354277431 -0.08618332  1  23  H
    -7.140400708743024 11.10079994427743 1.28814761  1  24  H
    -3.294025238743024 8.47338318427743 0.0  3  25  Si
    -4.243493598743024 7.18484705427743 0.0  4  26  O
    -1.5030803687430239 8.29964771427743 0.0  2  27  N
    -1.1720890087430238 7.267290734277431 0.0  1  28  H
    -0.19462214874302375 9.49419413427743 0.0  3  29  Si
    1.3713147812569761 9.226947284277431 0.0  4  30  O
%endblock AtomicCoordinatesAndAtomicSpecies

%include ../../../../Defaults.fdf
