# mpirun -np 4 siesta-4.1.5 < AT.fdf > AT.out &

SystemLabel      AT

NumberOfAtoms    30

NumberOfSpecies  4
%block ChemicalSpeciesLabel
    1    1  H
    2    7  N
    3   14  Si
    4    8  O
%endblock ChemicalSpeciesLabel

############################################
# This overrides Defaults.fdf configuration
############################################
MD.TypeOfRun                Verlet # CG, Verlet
MD.Steps                    0
MaxSCFIterations            200
SCF.MustConverge            F

AtomicCoordinatesFormat NotScaledCartesianAng
%block AtomicCoordinatesAndAtomicSpecies
    2.28494382 -5.19529124 0.0  1  1  H
    1.37433094 -4.6647107 0.0  2  2  N
    -0.21830245 -5.49458215 0.0  3  3  Si
    -0.17484108 -6.98516892 0.0  1  4  H
    -1.66171682 -4.58600741 0.0  2  5  N
    -1.09026419 -2.87456374 0.0  3  6  Si
    -1.53038332 -0.70765692 0.0  3  7  Si
    -3.14415959 -0.09186471 0.0  2  8  N
    -3.40268075 0.95848335 0.0  1  9  H
    -3.95073599 -0.76720972 0.0  1  10  H
    -0.17836637 0.41349951 0.0  2  11  N
    1.49520211 -0.0473996 0.0  3  12  Si
    2.45603905 1.10727302 0.0  1  13  H
    2.30451743 -1.58574382 0.0  2  14  N
    1.10725559 -2.84610319 0.0  3  15  Si
    -0.03231307491345459 11.868627863429756 0.0  1  16  H
    -0.8410237549134546 11.176421983429755 0.0  2  17  N
    -2.497613594913455 11.889542083429756 0.0  3  18  Si
    -2.4007484249134547 13.400267293429756 0.0  1  19  H
    -4.223769944913455 10.546493953429756 0.0  3  20  Si
    -6.578224194913455 10.538507023429755 0.0  3  21  Si
    -7.140642314913455 11.272996673429756 -1.20183078  1  22  H
    -6.878037944913455 9.059415893429755 -0.08618332  1  23  H
    -7.140754774913455 11.103339483429757 1.28814761  1  24  H
    -3.2943793049134547 8.475922723429756 0.0  3  25  Si
    -4.243847664913455 7.187386593429755 0.0  4  26  O
    -1.5034344349134545 8.302187253429755 0.0  2  27  N
    -1.1724430749134545 7.269830273429756 0.0  1  28  H
    -0.19497621491345463 9.496733673429755 0.0  3  29  Si
    1.3709607150865453 9.229486823429756 0.0  4  30  O
%endblock AtomicCoordinatesAndAtomicSpecies

#############
# Unit Cell
#############
LatticeConstant 1.0 Ang
%block LatticeVectors
    30.00000    0.000000    0.000000
    0.000000    45.00000    0.000000
    0.000000    0.000000    10.00000
%endblock LatticeVectors

%include ../../../../Defaults.fdf
