SystemLabel      AT

NumberOfAtoms    30

NumberOfSpecies  4
%block ChemicalSpeciesLabel
    1    1  H
    2    7  N
    3   14  Si
    4    8  O
%endblock ChemicalSpeciesLabel

# Single point calculation
MD.TypeOfRun                CG
MD.Steps                    0
SCF.MustConverge            F # In case it does not. There can be 2 very close atoms

AtomicCoordinatesFormat NotScaledCartesianAng
%block AtomicCoordinatesAndAtomicSpecies
2.582377650    -5.776830440   0.000000000       1
1.654759240    -5.269361980   0.000000000       2
0.063128840    -6.101704590   0.000000000       3
0.119223240    -7.596849500   0.000000000       1
-1.376892050   -5.182603740   0.000000000       2
-0.824371900   -3.460866440   0.000000000       3
-1.170571480   -1.270002100   0.000000000       3
-2.706933680   -0.417515780   0.000000000       2
-2.754569660   0.634858620    0.000000000       1
-3.637675640   -0.909967860   0.000000000       1
0.218091790    -0.234193970   0.000000000       2
1.872004100    -0.697162300   0.000000000       3
2.828001130    0.461464770    0.000000000       1
2.648150080    -2.255024470   0.000000000       2
1.391921380    -3.454727220   0.000000000       3
1.835657357    8.490635169    0.000000000       2
0.508285837    9.700839469    0.000000000       3
1.148287107    11.062157709   0.000000000       1
-1.577460103   9.030308119    0.000000000       3
-3.607022703   10.160424309   0.000000000       3
-3.452786933   11.320654519   0.940305280       1
-4.592957423   9.138503689    0.512613700       1
-4.023237663   10.636650159   -1.366678340      1
-1.510964683   6.756331499    0.000000000       3
-2.550013413   5.563271999    0.000000000       4
0.146026897    6.122356309    0.000000000       2
0.128009527    5.059911479    0.000000000       1
1.769629967    6.719426519    0.000000000       3
2.964646137    5.705001319    0.000000000       4
2.835694727    8.836142269    0.000000000       1
%endblock AtomicCoordinatesAndAtomicSpecies

%include ../../../Defaults.fdf
