SystemLabel      desoxy1

NumberOfAtoms    37

NumberOfSpecies  4
%block ChemicalSpeciesLabel
    1    8  O
    2   14  Si
    3    1  H
    4   15  P
%endblock ChemicalSpeciesLabel

AtomicCoordinatesFormat NotScaledCartesianAng
%block AtomicCoordinatesAndAtomicSpecies
  -10.36600349   15.55264640   -0.34094590   1       1  O
   -9.26549119   15.06811505    0.96706487   2       2  Si
  -10.00481894   14.12159271    1.87884603   3       3  H
   -8.83245063   16.30879801    1.70823969   3       4  H
   -7.19649092   14.06328793    0.32839604   2       5  Si
   -6.39977177   14.20561083    1.62026376   3       6  H
   -7.21091403   12.36014294   -0.08643541   1       7  O
   -7.58758105   11.80575354   -1.71337721   2       8  Si
   -6.49058478   10.84427494   -2.13327884   3       9  H
   -8.92205134   11.09582309   -1.62273046   3      10  H
   -6.42233025   15.19132328   -1.59941880   2      11  Si
   -6.85014667   16.64458314   -1.62237955   3      12  H
   -7.61669320   13.75520012   -3.06796923   2      13  Si
   -9.01468225   14.29121929   -3.24342856   3      14  H
   -7.02799258   13.53396429   -4.43997126   3      15  H
   -4.68761644   15.04756398   -1.70982045   1      16  O
   -4.32714550   15.21831201   -2.62228792   3      17  H
  -11.80814803   16.30816513    1.62865154   1      18  O
  -11.51194531   16.77733251    0.02098315   4      19  P
  -10.72964124   18.15128161   -0.08560597   1      20  O
  -12.97232513   16.56132046   -0.59840831   1      21  O
  -17.12472423   14.12440222    2.73269880   1      22  O
  -16.47133663   14.91186255    4.14504575   2      23  Si
  -16.85419368   14.12224980    5.37893890   3      24  H
  -17.03421594   16.30958083    4.26814607   3      25  H
  -14.07558320   15.01175240    4.25475398   2      26  Si
  -13.78875993   15.97448921    5.37947446   3      27  H
  -13.51840790   13.45147088    4.85874669   1      28  O
  -13.02105571   12.29048938    3.60195714   2      29  Si
  -11.53711839   12.02158400    3.75688403   3      30  H
  -13.78979773   11.01243752    3.84167580   3      31  H
  -13.38542936   15.57738542    1.93319156   2      32  Si
  -14.51310049   16.47774425    1.53646152   3      33  H
  -13.44002324   13.25097765    1.43671909   2      34  Si
  -14.78116515   12.86183225    0.85444924   3      35  H
  -12.34506356   13.02612074    0.42660928   3      36  H
  -18.02513137   14.45871673    2.47543281   3      37  H
%endblock AtomicCoordinatesAndAtomicSpecies

%include ../defaults.fdf


