SystemLabel      AT

NumberOfAtoms    30

NumberOfSpecies  4
%block ChemicalSpeciesLabel
    1    1  H
    2    7  N
    3   14  Si
    4    8  O
%endblock ChemicalSpeciesLabel

# Single point calculation
MD.TypeOfRun                CG
MD.Steps                    0
SCF.MustConverge            F # In case it does not. There can be 2 very close atoms

AtomicCoordinatesFormat NotScaledCartesianAng
%block AtomicCoordinatesAndAtomicSpecies
2.582377650    -5.776830440   0.000000000       1
1.654759240    -5.269361980   0.000000000       2
0.063128840    -6.101704590   0.000000000       3
0.119223240    -7.596849500   0.000000000       1
-1.376892050   -5.182603740   0.000000000       2
-0.824371900   -3.460866440   0.000000000       3
-1.170571480   -1.270002100   0.000000000       3
-2.706933680   -0.417515780   0.000000000       2
-2.754569660   0.634858620    0.000000000       1
-3.637675640   -0.909967860   0.000000000       1
0.218091790    -0.234193970   0.000000000       2
1.872004100    -0.697162300   0.000000000       3
2.828001130    0.461464770    0.000000000       1
2.648150080    -2.255024470   0.000000000       2
1.391921380    -3.454727220   0.000000000       3
1.830858786    8.772645629    0.000000000       2
0.503487266    9.982849929    0.000000000       3
1.143488536    11.344168169   0.000000000       1
-1.582258674   9.312318579    0.000000000       3
-3.611821274   10.442434769   0.000000000       3
-3.457585504   11.602664979   0.940305280       1
-4.597755994   9.420514149    0.512613700       1
-4.028036234   10.918660619   -1.366678340      1
-1.515763254   7.038341959    0.000000000       3
-2.554811984   5.845282459    0.000000000       4
0.141228326    6.404366769    0.000000000       2
0.123210956    5.341921939    0.000000000       1
1.764831396    7.001436979    0.000000000       3
2.959847566    5.987011779    0.000000000       4
2.830896156    9.118152729    0.000000000       1
%endblock AtomicCoordinatesAndAtomicSpecies

%include ../../../Defaults.fdf
