# mpirun -np 8 siesta-5 < GC.fdf > GC.out

SystemLabel      GC

NumberOfAtoms    29

NumberOfSpecies  4
%block ChemicalSpeciesLabel
    1    1  H   ../../../Pseudos/PBE/H/H.psml
    2    7  N   ../../../Pseudos/PBE/N/N.psml
    3    6  C   ../../../Pseudos/PBE/C/C.psml
    4    8  O   ../../../Pseudos/PBE/O/O.psml
%endblock ChemicalSpeciesLabel

############################################
# This overrides Defaults.fdf configuration
############################################
MD.Steps                    1000

%block Geometry.Constraints
    atom [6]
%endblock

AtomicCoordinatesFormat NotScaledCartesianAng
%block AtomicCoordinatesAndAtomicSpecies
     6.471902230    -4.920023810     2.034947320    1
     5.785000000    -4.219000000     1.620000000    2
     4.456000000    -4.566000000     1.600000000    3
     4.149000000    -5.551000000     1.919000000    1
     3.660000000    -3.609000000     1.170000000    2
     4.530000000    -2.553000000     0.900000000    3
     4.259000000    -1.254000000     0.410000000    3
     3.184000000    -0.747000000     0.110000000    4
     5.437000000    -0.504000000     0.270000000    2
     5.349000000     0.429000000    -0.079000000    1
     6.712000000    -0.955000000     0.570000000    3
     7.709000000    -0.094000000     0.370000000    2
     7.636000000     0.848000000     0.013000000    1
     8.640000000    -0.425000000     0.580000000    1
     6.966000000    -2.183000000     1.030000000    2
     5.830000000    -2.919000000     1.170000000    3
     6.958000000     5.037000000    -2.040000000    1
     5.785000000     4.219000000    -1.620000000    2
     4.525000000     4.735000000    -1.660000000    3
     4.366000000     5.751000000    -1.990000000    1
     3.457000000     3.991000000    -1.290000000    3
     2.453000000     4.411000000    -1.353000000    1
     3.721000000     2.654000000    -0.840000000    3
     2.720000000     1.869000000    -0.460000000    2
     2.947000000     0.935000000    -0.150000000    1
     1.769000000     2.208000000    -0.486000000    1
     4.965000000     2.149000000    -0.800000000    2
     6.018000000     2.922000000    -1.190000000    3
     7.187000000     2.503000000    -1.170000000    4
%endblock AtomicCoordinatesAndAtomicSpecies

#############
# Unit Cell
#############
LatticeConstant 1.0 Ang
%block LatticeVectors
    14.278344    0.000000    0.000000
    0.000000   19.152444    0.000000
    0.000000    0.000000   11.202686
%endblock LatticeVectors

%include ../../../Defaults.fdf