SystemLabel      5G_Chain

NumberOfAtoms    321

NumberOfSpecies  5
%block ChemicalSpeciesLabel
    1   14  Si
    2    1  H
    3    8  O
    4    7  N
    5   15  P
%endblock ChemicalSpeciesLabel

############################################
# This overrides Defaults.fdf configuration
############################################
MD.TypeOfRun                Verlet # CG, Verlet
MD.Steps                    1000
MD.Quench                   True
SCF.H.Tolerance             0.00009 eV
SCF.DM.Tolerance            0.00009
MD.MaxForceTol              0.09 eV/Ang

SCF.MustConverge            F
MD.LengthTimeStep           1.0 fs

%block SCF.Mixers
    init
    mid
    final
%endblock

%block SCF.Mixer.init
    method pulay
    weight 0.07
    history 10
    restart 12
    restart.save 4
    next mid
    iterations 30
%endblock

%block SCF.Mixer.mid
    method pulay
    weight 0.13
    history 6
    restart 12
    restart.save 3
    next final
    iterations 24
%endblock

%block SCF.Mixer.final
    method pulay
    weight 0.2
    history 6
    restart 20
    iterations 15
%endblock

AtomicCoordinatesFormat NotScaledCartesianAng
%block AtomicCoordinatesAndAtomicSpecies
   -1.73919050   16.88664653    2.94568137   1       1  Si
   -2.40789583   15.82125087    3.77866745   2       2  H
   -1.33842249   18.07105770    3.78029585   2       3  H
    0.32241617   16.02199138    2.17666536   1       4  Si
    1.16111226   16.09223282    3.42735737   2       5  H
    0.17760843   14.29492061    1.84131254   3       6  O
   -0.17634456   13.74278597    0.22924370   1       7  Si
    0.80324608   12.67781390   -0.17519111   2       8  H
    1.05068390   17.10782625    0.20301408   1       9  Si
    0.53387146   18.52114650    0.17554669   2      10  H
   -0.22306500   15.66813438   -1.18038184   1      11  Si
   -1.60623706   16.27068286   -1.31800043   2      12  H
    0.35653389   15.37187544   -2.54757721   2      13  H
   -0.32280369    2.08100838    0.21640956   4      14  N
   -1.90253188    1.33372487    0.74433089   1      15  Si
   -2.05244981   -0.09224903    0.35128590   2      16  H
   -3.15438029    2.24762120    1.44342348   4      17  N
   -2.58517064    3.94574520    1.62399580   1      18  Si
   -3.49630798    5.85459882    0.56572877   1      19  Si
   -4.99172739    6.38197496    0.26443875   3      20  O
   -2.06841642    6.94304200    0.30588441   4      21  N
   -2.32139711    8.00241520    0.26286728   2      22  H
   -0.31817094    6.62157143    0.23056139   1      23  Si
    0.66589905    7.99857109    0.36676515   4      24  N
    0.35488777    9.07945912    0.35093298   2      25  H
    1.69866346    7.82126500    0.26381884   2      26  H
    0.47967177    5.09991221    0.00096378   4      27  N
   -0.60838439    3.84906706    0.41255297   1      28  Si
   -1.80827889   12.76371908    0.28166052   4      29  N
   -3.41246526   13.52495191    0.26741609   1      30  Si
   -3.21173378   15.01467706    0.26329832   2      31  H
   -5.31075558   12.46737625    0.92162068   1      32  Si
   -6.42233871   12.94536070   -0.00038010   2      33  H
   -4.61098112   10.36093017    0.29071732   1      34  Si
   -5.74263286    9.05578990    0.25069748   4      35  N
   -5.45728345    8.00486012    0.17621006   2      36  H
   -6.77923342    9.25839239    0.26298100   2      37  H
   -2.95129607    9.87651681    0.30493322   4      38  N
   -1.62737532   10.96508839    0.31122520   1      39  Si
   -0.09050050   10.51747322    0.26410603   3      40  O
   -1.60497980   -2.51645694   -1.23154146   3      41  O
   -0.38528659   -1.97958674   -2.37347831   1      42  Si
   -0.98122869   -0.89822343   -3.25119824   2      43  H
    0.00063227   -3.14722670   -3.25168308   2      44  H
    1.72446364   -1.22212220   -1.48469366   1      45  Si
    2.67613582   -1.43947589   -2.63658637   2      46  H
    1.87035048    0.53832104   -1.22705324   3      47  O
    1.39711072    1.26848995    0.27006000   1      48  Si
    2.22986503    2.51629666    0.43950207   2      49  H
    2.30300064   -2.16356843    0.61999763   1      50  Si
    1.87320377   -3.59618040    0.79101354   2      51  H
    1.22039727   -0.50241788    1.88021159   1      52  Si
   -0.27021877   -0.71899826    2.02027100   2      53  H
    1.78419782   -0.26793793    3.25062925   2      54  H
   -2.94539548   17.44294615    1.76315300   3      55  O
   -4.08178675   18.56589734    2.49577996   5      56  P
   -3.48047017   20.03836794    2.55130302   3      57  O
   -5.44350611   18.51849083    1.75401457   3      58  O
    2.76382116   17.08053539   -0.08817128   3      59  O
    4.01313936   -1.88870279    0.87739551   3      60  O
    4.52274185   -1.95793314    2.50287213   5      61  P
    5.88595704   -2.69539713    2.63541663   3      62  O
    3.30299819   -2.51457599    3.33678617   3      63  O
    4.72824063   -0.26976764    2.72474507   3      64  O
   -2.38200514   -2.96083660   -1.66742591   2      65  H
    3.03375649   17.44176150   -0.96916290   2      66  H
   -8.01549723   14.60076377    7.01439752   1      67  Si
   -7.76073977   13.30258374    7.73265461   2      68  H
   -8.47570844   15.64349190    7.99532398   2      69  H
   -5.88050769   15.29642789    6.23908255   1      70  Si
   -5.26187579   15.91188599    7.46898334   2      71  H
   -4.90859267   13.84639171    5.88309895   3      72  O
   -4.88919361   13.23233317    4.25558305   1      73  Si
   -3.47748065   13.12535246    3.77743141   2      74  H
   -6.08210185   16.66771337    4.29582572   1      75  Si
   -7.31581967   17.53054271    4.30514406   2      76  H
   -6.19629707   14.73477480    2.92922067   1      77  Si
   -7.58622952   14.20346553    2.72294664   2      78  H
   -5.61928346   15.10304735    1.58090291   2      79  H
    2.65898136    4.16142373    4.03538223   4      80  N
    2.02795688    2.50185763    4.26454552   1      81  Si
    3.03475831    1.43596656    4.04141820   2      82  H
    0.35807829    2.22381086    4.56467745   4      83  N
   -0.41985128    3.80278695    4.86641659   1      84  Si
   -2.25224669    4.87800348    3.84615661   1      85  Si
   -3.74824470    4.49616415    4.30483535   3      86  O
   -1.79028735    6.67473290    3.92830597   4      87  N
   -2.67779571    7.28219633    4.04173794   2      88  H
   -0.30184614    7.61865170    4.00778001   1      89  Si
   -0.47200416    9.29389176    4.27336935   4      90  N
   -1.42603828    9.88819094    4.30412796   2      91  H
    0.41542627    9.86979042    4.30154226   2      92  H
    1.30276711    6.95559824    3.91093264   4      93  N
    1.25479505    5.27208798    4.19106357   1      94  Si
   -5.46277992   11.42810708    4.33853664   4      95  N
   -7.18802492   10.96936898    4.30594030   1      96  Si
   -8.02804839   12.22630872    4.30484675   2      97  H
   -7.92449140    8.92692209    4.93060226   1      98  Si
   -9.18700537    8.63029518    4.12889794   2      99  H
   -6.05203629    7.74878538    4.27528834   1     100  Si
   -6.05510028    6.01851364    4.32788912   4     101  N
   -5.15521119    5.39353294    4.30035100   2     102  H
   -6.95846736    5.48411806    4.21699628   2     103  H
   -4.48447881    8.48019005    4.27973019   4     104  N
   -4.15854833   10.16156535    4.32122009   1     105  Si
   -2.67755822   10.78659156    4.30484161   3     106  O
    5.32253160    0.93816887    1.60092859   1     107  Si
    4.10580785    1.34823946    0.78937577   2     108  H
    6.41169420    0.36393962    0.70999395   2     109  H
    6.31725277    2.94475496    2.55240891   1     110  Si
    7.22662957    3.32683406    1.40572963   2     111  H
    5.26395997    4.40110997    2.72583929   3     112  O
    4.46277902    4.64995093    4.23017484   1     113  Si
    4.28233207    6.11510770    4.47987276   2     114  H
    7.29736833    2.61448918    4.72466032   1     115  Si
    7.93840551    1.25943366    4.91987699   2     116  H
    5.35513150    3.21916993    5.90728320   1     117  Si
    4.28166195    2.15659247    6.06233697   2     118  H
    5.53054469    3.95547835    7.20449346   2     119  H
   -9.28013747   14.29468678    5.80455060   3     120  O
  -10.90506628   14.46178295    6.46006387   5     121  P
  -11.32643286   15.99478365    6.32946360   3     122  O
  -11.86423663   13.48440051    5.70935131   3     123  O
   -4.63309867   17.53428640    3.95020123   3     124  O
    8.38535936    3.95636317    5.00866995   3     125  O
    8.81611646    4.26633911    6.65325115   5     126  P
   10.34372481    4.58460515    6.76441815   3     127  O
    8.20782703    3.05884209    7.46649454   3     128  O
    7.85147317    5.66302340    7.02653323   3     129  O
  -11.64223380    9.05593421   11.06720906   1     130  Si
  -10.70436824    8.18028362   11.86138979   2     131  H
  -12.66850105    9.70949907   11.94988166   2     132  H
  -10.26989697   10.91261739   10.33275904   1     133  Si
  -10.16994890   11.59776419   11.68413656   2     134  H
   -8.56837538   10.42887134   10.01187296   3     135  O
   -8.17636135   10.03772443    8.36068613   1     136  Si
   -6.95985726   10.78948104    7.90687542   2     137  H
  -11.24573572   12.00636936    8.39270579   1     138  Si
  -12.75500732   11.86618737    8.43414595   2     139  H
  -10.13758425   10.42268783    7.02818769   1     140  Si
  -10.97311692    9.16824929    6.94026940   2     141  H
   -9.81329765   10.87843490    5.62316634   2     142  H
    3.34811353    7.93300066    8.31116824   4     143  N
    3.85872718    6.24598714    8.77429245   1     144  Si
    5.26196115    5.93187715    8.34784869   2     145  H
    2.73769527    5.13636660    9.42550167   4     146  N
    1.14459166    5.96175995    9.65487317   1     147  Si
   -0.86707835    5.42844729    8.55160216   1     148  Si
   -1.69362983    4.04825997    8.43349537   3     149  O
   -1.72794226    7.00834228    8.30253113   4     150  N
   -2.81571277    6.91798516    8.32581510   2     151  H
   -1.12568355    8.68383890    8.27450323   1     152  Si
   -2.31778231    9.88673577    8.41615693   4     153  N
   -3.42501563    9.76164141    8.43645639   2     154  H
   -1.96354780   10.87896930    8.34610885   2     155  H
    0.51385107    9.21178507    8.08325523   4     156  N
    1.56549979    7.93922254    8.52051896   1     157  Si
   -7.49620112    8.26405349    8.46076812   4     158  N
   -8.54225282    6.83486307    8.47044967   1     159  Si
   -9.99027798    7.28136773    8.43389666   2     160  H
   -7.79347662    4.79947000    9.15030475   1     161  Si
   -8.47460688    3.77575578    8.25769400   2     162  H
   -5.57375998    5.11412776    8.52171338   1     163  Si
   -4.47072299    3.78134370    8.46172823   4     164  N
   -3.39061200    3.86711194    8.34683996   2     165  H
   -4.81837079    2.78664027    8.43378862   2     166  H
   -4.83373430    6.67728433    8.53058392   4     167  N
   -5.68639020    8.16680174    8.49557333   1     168  Si
   -4.99495175    9.61672864    8.43415006   3     169  O
    7.51244435    6.97515004    5.90931013   1     170  Si
    6.42170746    6.47255799    5.00518264   2     171  H
    8.74331853    7.28240119    5.09515574   2     172  H
    6.94397762    9.19101200    6.72510137   1     173  Si
    7.40525233    9.98046038    5.53262418   2     174  H
    5.26442495    9.79521153    6.94314867   3     175  O
    4.44912997    9.47167613    8.43847776   1     176  Si
    3.39007096   10.51690288    8.69522035   2     177  H
    8.00044552    9.58689755    8.80200649   1     178  Si
    9.27774298    8.80953539    8.96188883   2     179  H
    6.10823392    8.96882842   10.07913225   1     180  Si
    5.97692052    7.46009431   10.19210807   2     181  H
    5.88711801    9.61801686   11.42023804   2     182  H
  -12.48858487    8.00195581    9.92811705   3     183  O
  -13.87714923    7.08135974   10.22253328   5     184  P
  -15.15902619    7.99710783   10.02118922   3     185  O
  -13.91487073    5.75432917    9.40216294   3     186  O
  -10.79192049   13.66860146    8.07837729   3     187  O
    8.20553121   11.32591632    8.96551164   3     188  O
    8.25860333   11.75915900   10.65357335   5     189  P
    9.27346702   12.94340507   10.80645586   3     190  O
    8.64763393   10.43489445   11.50346251   3     191  O
    6.51723774   12.31400986   10.89366013   3     192  O
  -10.63247406    2.52877787   15.21777401   1     193  Si
   -9.27762380    2.51827770   15.90088558   2     194  H
  -11.68779618    2.24687592   16.25319754   2     195  H
  -10.97515110    4.76444744   14.43954399   1     196  Si
  -11.33080609    5.48472627   15.72528510   2     197  H
   -9.36867927    5.39299293   14.05430828   3     198  O
   -8.73622359    5.35600195   12.44580958   1     199  Si
   -8.38518375    6.74458424   12.03447247   2     200  H
  -12.37749639    4.89112164   12.44400276   1     201  Si
  -13.38226782    3.77358935   12.47564057   2     202  H
  -10.44902826    4.35932522   11.11916471   1     203  Si
  -10.25870596    2.87392495   10.98149979   2     204  H
  -10.70398587    4.94571736    9.75079436   2     205  H
    1.52442602   11.21278120   12.27681426   4     206  N
    3.06423579   10.31202835   12.42183043   1     207  Si
    4.28449104   11.14831516   12.29906857   2     208  H
    3.07615842    8.59954184   12.56236922   4     209  N
    1.40104584    8.06789852   12.86188333   1     210  Si
    0.07051128    6.39336244   11.87385230   1     211  Si
    0.08784277    4.94334771   12.56245587   3     212  O
   -1.63983347    7.19780970   11.87412315   4     213  N
   -2.38001805    6.41996082   12.02856890   2     214  H
   -2.33695344    8.80589155   12.11796590   1     215  Si
   -4.01253234    8.95534584   12.43711659   4     216  N
   -4.81471811    8.17944267   12.47528336   2     217  H
   -4.36121370    9.94982094   12.54770062   2     218  H
   -1.44737734   10.30378639   12.11444774   4     219  N
    0.20737543    9.99546297   12.38898550   1     220  Si
   -7.07167114    4.47403818   12.56667944   4     221  N
   -6.96545763    2.69626691   12.51248879   1     222  Si
   -8.38364328    2.15741863   12.56288303   2     223  H
   -5.05918933    1.58436510   13.03690367   1     224  Si
   -4.99567017    0.36106010   12.12458586   2     225  H
   -3.56396826    3.26636548   12.47267230   1     226  Si
   -1.86177571    2.97313709   12.55313211   4     227  N
   -1.07919609    3.75135775   12.54527020   2     228  H
   -1.51548158    1.97830669   12.47523676   2     229  H
   -4.00313877    4.93575357   12.48813481   4     230  N
   -5.60161433    5.54105256   12.55267282   1     231  Si
   -5.97566946    7.10118165   12.56289575   3     232  O
    5.32110978   13.16481513    9.92973181   1     233  Si
    4.64015862   12.13677010    9.04820807   2     234  H
    5.97717520   14.20453003    9.04940034   2     235  H
    3.38935108   14.50717376   10.81050454   1     236  Si
    3.21223567   15.37275799    9.57647009   2     237  H
    1.70024981   13.84349491   10.98386333   3     238  O
    1.30805901   13.07036389   12.47411073   1     239  Si
   -0.17980429   13.12564458   12.65135502   2     240  H
    3.80671839   15.49568372   12.94996802   1     241  Si
    5.26276195   15.82245560   13.17814019   2     242  H
    2.86812772   13.71131896   14.15078646   1     243  Si
    3.74817090   12.49397733   14.32020483   2     244  H
    2.22891479   14.02444136   15.46397884   2     245  H
  -10.61638002    1.25534733   13.97609259   3     246  O
  -10.99031040   -0.34619748   14.64502278   5     247  P
  -12.57058863   -0.53763646   14.50040435   3     248  O
  -10.16923289   -1.43720545   13.88116941   3     249  O
  -13.02759720    6.38541483   11.94440352   3     250  O
    2.67595153   16.81171324   13.18348025   3     251  O
    2.48697785   17.30050060   14.89628855   5     252  P
    2.40896814   18.87196217   15.02206227   3     253  O
    3.56366343   16.45446794   15.72171666   3     254  O
    0.89406701   16.63173494   15.28381711   3     255  O
   -5.81809328   -1.98909243   19.27602830   1     256  Si
   -4.72782397   -1.25868329   20.03097354   2     257  H
   -6.60180411   -2.87712658   20.20732397   2     258  H
   -7.42333584   -0.33010100   18.53612362   1     259  Si
   -8.11886848   -0.09024021   19.85606606   2     260  H
   -6.69092747    1.25465727   18.18333939   3     261  O
   -6.15121406    1.52488511   16.55394483   1     262  Si
   -6.77972401    2.78911692   16.07576550   2     263  H
   -8.62298510   -1.11258358   16.60497707   1     264  Si
   -8.74244617   -2.60854384   16.69186509   2     265  H
   -6.83668763   -0.34793597   15.24251944   1     266  Si
   -5.70985882   -1.34939787   15.11034052   2     267  H
   -7.31520771    0.08943082   13.88026055   2     268  H
   -2.15665361   12.61379399   16.54371710   4     269  N
   -0.37434136   12.88775387   16.52320219   1     270  Si
    0.08882774   14.29460921   16.34053026   2     271  H
    0.71567366   11.55877610   16.64309943   4     272  N
   -0.27603855   10.16561799   17.15996816   1     273  Si
   -0.41449582    7.94368215   16.59338680   1     274  Si
    0.80212710    6.92132192   16.69125916   3     275  O
   -2.13118479    7.38304110   16.57740625   4     276  N
   -2.22935820    6.29277400   16.60467023   2     277  H
   -3.66574971    8.28184891   16.55509095   1     278  Si
   -5.05499431    7.31130273   16.64687046   4     279  N
   -5.08597351    6.20181789   16.69163309   2     280  H
   -5.97845923    7.81964493   16.60423139   2     281  H
   -3.87030924    9.99825032   16.49431337   4     282  N
   -2.40450843   10.84424505   16.69399143   1     283  Si
   -4.29984601    1.88816437   16.67388381   4     284  N
   -3.04386284    0.62157124   16.72103408   1     285  Si
   -3.74639452   -0.71912299   16.69173508   2     286  H
   -0.94004839    0.99529174   17.49316959   1     287  Si
   -0.08959345    0.17977080   16.51688831   2     288  H
   -0.88815693    3.20153304   16.76205739   1     289  Si
    0.61448066    4.04914942   16.67904503   4     290  N
    0.71387551    5.12340128   16.60431465   2     291  H
    1.51752136    3.50684902   16.69213957   2     292  H
   -2.26975619    4.24706577   16.72545561   4     293  N
   -3.87489132    3.65086078   16.70143475   1     294  Si
   -5.17290161    4.58597278   16.69215068   3     295  O
   -3.38463688   -5.22361363   20.39375284   2     296  H
   -0.42177848   16.50823257   14.12327454   1     297  Si
   -0.08945152   15.37285124   13.17765448   2     298  H
   -0.53564763   17.80046582   13.35315742   2     299  H
   -2.71002101   16.30798235   14.94913079   1     300  Si
   -3.47891839   16.90146495   13.79243139   2     301  H
   -3.56484816   14.74581719   15.20007319   3     302  O
   -3.47634118   13.95429352   16.72469273   1     303  Si
   -4.72780162   13.12572763   16.86889647   2     304  H
   -2.87704127   17.41339204   17.04236902   1     305  Si
   -1.87310343   18.51949280   17.21975840   2     306  H
   -2.62752121   15.47121384   18.34831296   1     307  Si
   -1.15861520   15.10164341   18.44973463   2     308  H
   -3.30099192   15.37157134   19.68077720   2     309  H
   -4.99464774   -3.05666310   18.10184503   3     310  O
   -3.92620159   -4.40623684   20.19799327   3     311  O
   -4.31938853   -4.56389973   18.48005232   5     312  P
   -5.43829412   -5.66160291   18.18765240   3     313  O
   -3.03729672   -4.85323949   17.57515123   3     314  O
  -10.17382975   -0.35701471   16.33362348   3     315  O
   -4.54923978   17.89088813   17.22334095   3     316  O
   -4.97969071   18.12495348   18.89387416   5     317  P
   -6.06423180   19.23759737   19.06317697   3     318  O
   -3.66027352   18.24829665   19.76363657   3     319  O
   -5.70901695   16.63157452   19.23869276   3     320  O
   -6.60376228   16.63158989   18.80026154   2     321  H
%endblock AtomicCoordinatesAndAtomicSpecies

%include ../../../Defaults.fdf
