# Created by GDIS version 0.90.0
#

SystemLabel      10G_Chain_P

NumberOfAtoms    630

NumberOfSpecies  5
%block ChemicalSpeciesLabel
    1   14  Si
    2    1  H
    3    8  O
    4    7  N
    5   15  P
%endblock ChemicalSpeciesLabel

LatticeConstant 1.0 Ang
%block LatticeVectors
  34.2839970000    0.0000000000    0.0000000000
   0.0000000000   34.8348730000    0.0000000000
   0.0000000000    0.0000000000   47.0803760000
%endblock LatticeVectors

AtomicCoordinatesFormat NotScaledCartesianAng
%block AtomicCoordinatesAndAtomicSpecies
    34.149806500    19.403146530     4.177181370    1
    33.481101170    18.337750870     5.010167450    2
    34.550574510    20.587557700     5.011795850    2
    36.211413170    18.538491380     3.408165360    1
    37.050109260    18.608732820     4.658857370    2
    36.066605430    16.811420610     3.072812540    3
    35.712652440    16.259285970     1.460743700    1
    36.692243080    15.194313900     1.056308890    2
    36.939680900    19.624326250     1.434514080    1
    36.422868460    21.037646500     1.407046690    2
    35.665932000    18.184634380     0.051118160    1
    34.282759940    18.787182860    -0.086500430    2
    36.245530890    17.888375440    -1.316077210    2
     1.282196310     4.597508380     1.447909560    4
    -0.297531880     3.850224870     1.975830890    1
    -0.447449810     2.424250970     1.582785900    2
    -1.549380290     4.764121200     2.674923480    4
    -0.980170640     6.462245200     2.855495800    1
    -1.891307980     8.371098820     1.797228770    1
    -3.386727390     8.898474960     1.495938750    3
    -0.463416420     9.459542000     1.537384410    4
    -0.716397110    10.518915200     1.494367280    2
     1.286829060     9.138071430     1.462061390    1
     2.270899050    10.515071090     1.598265150    4
     1.959887770    11.595959120     1.582432980    2
     3.303663460    10.337765000     1.495318840    2
     2.084671770     7.616412210     1.232463780    4
     0.996615610     6.365567060     1.644052970    1
    34.080718110    15.280219080     1.513160520    4
    32.476531740    16.041451910     1.498916090    1
    32.677263220    17.531177060     1.494798320    2
    30.578241420    14.983876250     2.153120680    1
    29.466658290    15.461860700     1.231119900    2
    31.278015880    12.877430170     1.522217320    1
    30.146364140    11.572289900     1.482197480    4
    30.431713550    10.521360120     1.407710060    2
    29.109763580    11.774892390     1.494481000    2
    32.937700930    12.393016810     1.536433220    4
    34.261621680    13.481588390     1.542725200    1
    35.798496500    13.033973220     1.495606030    3
     0.000020200     0.000043060    -0.000041460    3
     1.219713410     0.536913260    -1.141978310    1
     0.623771310     1.618276570    -2.019698240    2
     1.605632270    -0.630726700    -2.020183080    2
     3.329463640     1.294377800    -0.253193660    1
     4.281135820     1.077024110    -1.405086370    2
     3.475350480     3.054821040     0.004446760    3
     3.002110720     3.784989950     1.501560000    1
     3.834865030     5.032796660     1.671002070    2
     3.908000640     0.352931570     1.851497630    1
     3.478203770    -1.079680400     2.022513540    2
     2.825397270     2.014082120     3.111711590    1
     1.334781230     1.797501740     3.251771000    2
     3.389197820     2.248562070     4.482129250    2
    32.943601520    19.959446150     2.994653000    3
    31.807210250    21.082397340     3.727279960    5
    32.408526830    22.554867940     3.782803020    3
    30.445490890    21.034990830     2.985514570    3
    38.652818160    19.597035390     1.143328720    3
     5.618139360     0.627797210     2.108895510    3
     6.127741850     0.558566860     3.734372130    5
     7.490957040    -0.178897130     3.866916630    3
     4.907998190     0.001924010     4.568286170    3
     6.333240630     2.246732360     3.956245070    3
    27.873499770    17.117263770     8.245897520    1
    28.128257230    15.819083740     8.964154610    2
    27.413288560    18.159991900     9.226823980    2
    30.008489310    17.812927890     7.470582550    1
    30.627121210    18.428385990     8.700483340    2
    30.980404330    16.362891710     7.114598950    3
    30.999803390    15.748833170     5.487083050    1
    32.411516350    15.641852460     5.008931410    2
    29.806895150    19.184213370     5.527325720    1
    28.573177330    20.047042710     5.536644060    2
    29.692699930    17.251274800     4.160720670    1
    28.302767480    16.719965530     3.954446640    2
    30.269713540    17.619547350     2.812402910    2
     4.263981360     6.677923730     5.266882230    4
     3.632956880     5.018357630     5.496045520    1
     4.639758310     3.952466560     5.272918200    2
     1.963078290     4.740310860     5.796177450    4
     1.185148720     6.319286950     6.097916590    1
    -0.647246690     7.394503480     5.077656610    1
    -2.143244700     7.012664150     5.536335350    3
    -0.185287350     9.191232900     5.159805970    4
    -1.072795710     9.798696330     5.273237940    2
     1.303153860    10.135151700     5.239280010    1
     1.132995840    11.810391760     5.504869350    4
     0.178961720    12.404690940     5.535627960    2
     2.020426270    12.386290420     5.533042260    2
     2.907767110     9.472098240     5.142432640    4
     2.859795050     7.788587980     5.422563570    1
    30.426217080    13.944607080     5.570036640    4
    28.700972080    13.485868980     5.537440300    1
    27.860948610    14.742808720     5.536346750    2
    27.964505600    11.443422090     6.162102260    1
    26.701991630    11.146795180     5.360397940    2
    29.836960710    10.265285380     5.506788340    1
    29.833896720     8.535013640     5.559389120    4
    30.733785810     7.910032940     5.531851000    2
    28.930529640     8.000618060     5.448496280    2
    31.404518190    10.996690050     5.511230190    4
    31.730448670    12.678065350     5.552720090    1
    33.211438780    13.303091560     5.536341610    3
     6.927531600     3.454668870     2.832428590    1
     5.710807850     3.864739460     2.020875770    2
     8.016694200     2.880439620     1.941493950    2
     7.922252770     5.461254960     3.783908910    1
     8.831629570     5.843334060     2.637229630    2
     6.868959970     6.917609970     3.957339290    3
     6.067779020     7.166450930     5.461674840    1
     5.887332070     8.631607700     5.711372760    2
     8.902368330     5.130989180     5.956160320    1
     9.543405510     3.775933660     6.151376990    2
     6.960131500     5.735669930     7.138783200    1
     5.886661950     4.673092470     7.293836970    2
     7.135544690     6.471978350     8.435993460    2
    26.608859530    16.811186780     7.036050600    3
    24.983930720    16.978282950     7.691563870    5
    24.562564140    18.511283650     7.560963600    3
    24.024760370    16.000900510     6.940851310    3
    31.255898330    20.050786400     5.181701230    3
     9.990359360     6.472863170     6.240169950    3
    10.421116460     6.782839110     7.884751150    5
    11.948724810     7.101105150     7.995918150    3
     9.812827030     5.575342090     8.697994540    3
     9.456473170     8.179523400     8.258033230    3
    24.246763200    11.572434210    12.298709060    1
    25.184628760    10.696783620    13.092889790    2
    23.220495950    12.225999070    13.181381660    2
    25.619100030    13.429117390    11.564259040    1
    25.719048100    14.114264190    12.915636560    2
    27.320621620    12.945371340    11.243372960    3
    27.712635650    12.554224430     9.592186130    1
    28.929139740    13.305981040     9.138375420    2
    24.643261280    14.522869360     9.624205790    1
    23.133989680    14.382687370     9.665645950    2
    25.751412750    12.939187830     8.259687690    1
    24.915880080    11.684749290     8.171769400    2
    26.075699350    13.394934900     6.854666340    2
     4.953113530    10.449500660     9.542668240    4
     5.463727180     8.762487140    10.005792450    1
     6.866961150     8.448377150     9.579348690    2
     4.342695270     7.652866600    10.657001670    4
     2.749591660     8.478259950    10.886373170    1
     0.737921650     7.944947290     9.783102160    1
    -0.088629830     6.564759970     9.664995370    3
    -0.122942260     9.524842280     9.534031130    4
    -1.210712770     9.434485160     9.557315100    2
     0.479316450    11.200338900     9.506003230    1
    -0.712782310    12.403235770     9.647656930    4
    -1.820015630    12.278141410     9.667956390    2
    -0.358547800    13.395469300     9.577608850    2
     2.118851070    11.728285070     9.314755230    4
     3.170499790    10.455722540     9.752018960    1
    28.392795880    10.780553490     9.692268120    4
    27.346744180     9.351363070     9.701949670    1
    25.898719020     9.797867730     9.665396660    2
    28.095520380     7.315970000    10.381804750    1
    27.414390120     6.292255780     9.489194000    2
    30.315237020     7.630627760     9.753213380    1
    31.418274010     6.297843700     9.693228230    4
    32.498385000     6.383611940     9.578339960    2
    31.070626210     5.303140270     9.665288620    2
    31.055262700     9.193784330     9.762083920    4
    30.202606800    10.683301740     9.727073330    1
    30.894045250    12.133228640     9.665650060    3
     9.117444350     9.491650040     7.140810130    1
     8.026707460     8.989057990     6.236682640    2
    10.348318530     9.798901190     6.326655740    2
     8.548977620    11.707512000     7.956601370    1
     9.010252330    12.496960380     6.764124180    2
     6.869424950    12.311711530     8.174648670    3
     6.054129970    11.988176130     9.669977760    1
     4.995070960    13.033402880     9.926720350    2
     9.605445520    12.103397550    10.033506490    1
    10.882742980    11.326035390    10.193388830    2
     7.713233920    11.485328420    11.310632250    1
     7.581920520     9.976594310    11.423608070    2
     7.492118010    12.134516860    12.651738040    2
    23.400412130    10.518455810    11.159617050    3
    22.011847770     9.597859740    11.454033280    5
    20.729970810    10.513607830    11.252689220    3
    21.974126270     8.270829170    10.633662940    3
    25.097076510    16.185101460     9.309877290    3
     9.810531210    13.842416320    10.197011640    3
     9.863603330    14.275659000    11.885073350    5
    10.878467020    15.459905070    12.037955860    3
    10.252633930    12.951394450    12.734962510    3
     8.122237740    14.830509860    12.125160130    3
    -9.027474060     5.045277870    16.449274010    1
    -7.672623800     5.034777700    17.132385580    2
   -10.082796180     4.763375920    17.484697540    2
    -9.370151100     7.280947440    15.671043990    1
    -9.725806090     8.001226270    16.956785100    2
    -7.763679270     7.909492930    15.285808280    3
    -7.131223590     7.872501950    13.677309580    1
    -6.780183750     9.261084240    13.265972470    2
   -10.772496390     7.407621640    13.675502760    1
   -11.777267820     6.290089350    13.707140570    2
    -8.844028260     6.875825220    12.350664710    1
    -8.653705960     5.390424950    12.212999790    2
    -9.098985870     7.462217360    10.982294360    2
     3.129426020    13.729281200    13.508314260    4
     4.669235790    12.828528350    13.653330430    1
     5.889491040    13.664815160    13.530568570    2
     4.681158420    11.116041840    13.793869220    4
     3.006045840    10.584398520    14.093383330    1
     1.675511280     8.909862440    13.105352300    1
     1.692842770     7.459847710    13.793955870    3
    -0.034833470     9.714309700    13.105623150    4
    -0.775018050     8.936460820    13.260068900    2
    -0.731953440    11.322391550    13.349465900    1
    -2.407532340    11.471845840    13.668616590    4
    -3.209718110    10.695942670    13.706783360    2
    -2.756213700    12.466320940    13.779200620    2
     0.157622660    12.820286390    13.345947740    4
     1.812375430    12.511962970    13.620485500    1
    -5.466671140     6.990538180    13.798179440    4
    -5.360457630     5.212766910    13.743988790    1
    -6.778643280     4.673918630    13.794383030    2
    -3.454189330     4.100865100    14.268403670    1
    -3.390670170     2.877560100    13.356085860    2
    -1.958968260     5.782865480    13.704172300    1
    -0.256775710     5.489637090    13.784632110    4
     0.525803910     6.267857750    13.776770200    2
     0.089518420     4.494806690    13.706736760    2
    -2.398138770     7.452253570    13.719634810    4
    -3.996614330     8.057552560    13.784172820    1
    -4.370669460     9.617681650    13.794395750    3
     6.926109780    15.681315130    11.161231810    1
     6.245158620    14.653270100    10.279708070    2
     7.582175200    16.721030030    10.280900340    2
     4.994351080    17.023673760    12.042004540    1
     4.817235670    17.889257990    10.807970090    2
     3.305249810    16.359994910    12.215363330    3
     2.913059010    15.586863890    13.705610730    1
     1.425195710    15.642144580    13.882855020    2
     5.411718390    18.012183720    14.181468020    1
     6.867761950    18.338955600    14.409640190    2
     4.473127720    16.227818960    15.382286460    1
     5.353170900    15.010477330    15.551704830    2
     3.833914790    16.540941360    16.695478840    2
    -9.011380020     3.771847330    15.207592590    3
    -9.385310400     2.170302520    15.876522780    5
   -10.965588630     1.978863540    15.731904350    3
    -8.564232890     1.079294550    15.112669410    3
   -11.422597200     8.901914830    13.175903520    3
     4.280951530    19.328213240    14.414980250    3
     4.091977850    19.817000600    16.127788550    5
     4.013968140    21.388462170    16.253562270    3
     5.168663430    18.970967940    16.953216660    3
     2.499067010    19.148234940    16.515317110    3
    -4.213093280     0.527407570    20.507528300    1
    -3.122823970     1.257816710    21.262473540    2
    -4.996804110    -0.360626580    21.438823970    2
    -5.818335840     2.186399000    19.767623620    1
    -6.513868480     2.426259790    21.087566060    2
    -5.085927470     3.771157270    19.414839390    3
    -4.546214060     4.041385110    17.785444830    1
    -5.174724010     5.305616920    17.307265500    2
    -7.017985100     1.403916420    17.836477070    1
    -7.137446170    -0.092043840    17.923365090    2
    -5.231687630     2.168564030    16.474019440    1
    -4.104858820     1.167102130    16.341840520    2
    -5.710207710     2.605930820    15.111760550    2
    -0.551653610    15.130293990    17.775217100    4
     1.230658640    15.404253870    17.754702190    1
     1.693827740    16.811109210    17.572030260    2
     2.320673660    14.075276100    17.874599430    4
     1.328961450    12.682117990    18.391468160    1
     1.190504180    10.460182150    17.824886800    1
     2.407127100     9.437821920    17.922759160    3
    -0.526184790     9.899541100    17.808906250    4
    -0.624358200     8.809274000    17.836170230    2
    -2.060749710    10.798348910    17.786590950    1
    -3.449994310     9.827802730    17.878370460    4
    -3.480973510     8.718317890    17.923133090    2
    -4.373459230    10.336144930    17.835731390    2
    -2.265309240    12.514750320    17.725813370    4
    -0.799508430    13.360745050    17.925491430    1
    -2.694846010     4.404664370    17.905383810    4
    -1.438862840     3.138071240    17.952534080    1
    -2.141394520     1.797377010    17.923235080    2
     0.664951610     3.511791740    18.724669590    1
     1.515406550     2.696270800    17.748388310    2
     0.716843070     5.718033040    17.993557390    1
     2.219480660     6.565649420    17.910545030    4
     2.318875510     7.639901280    17.835814650    2
     3.122521360     6.023349020    17.923639570    2
    -0.664756190     6.763565770    17.956955610    4
    -2.269891320     6.167360780    17.932934750    1
    -3.567901610     7.102472780    17.923650680    3
     1.183221520    19.024732570    15.354774540    1
     1.515548480    17.889351240    14.409154480    2
     1.069352370    20.316965820    14.584657420    2
    -1.105021010    18.824482350    16.180630790    1
    -1.873918390    19.417964950    15.023931390    2
    -1.959848160    17.262317190    16.431573190    3
    -1.871341180    16.470793520    17.956192730    1
    -3.122801620    15.642227630    18.100396470    2
    -1.272041270    19.929892040    18.273869020    1
    -0.268103430    21.035992800    18.451258400    2
    -1.022521210    17.987713840    19.579812960    1
     0.446384800    17.618143410    19.681234630    2
    -1.695991920    17.888071340    20.912277200    2
    -3.389647740    -0.540163100    19.333345030    3
    -2.321201590    -1.889736840    21.429493270    3
    -2.714388530    -2.047399730    19.711552320    5
    -3.833294120    -3.145102910    19.419152400    3
    -1.432296720    -2.336739490    18.806651230    3
    -8.568829750     2.159485290    17.565123480    3
    -2.944239780    20.407388130    18.454840950    3
    -3.374690710    20.641453480    20.125374160    5
    -4.459231800    21.754097370    20.294676970    3
    -2.055273520    20.764796650    20.995136570    3
    -4.104016950    19.148074520    20.470192760    3
     1.909337140    -0.334945230    24.463352650    1
     2.222189270     0.883397200    25.296338730    2
     1.887930610    -1.585139840    25.297967130    2
    -0.317605430    -0.138533950    23.694336640    1
    -1.095168590    -0.460621710    24.945028650    2
    -0.705130550     1.550716480    23.358983820    3
    -0.535947120     2.184366490    21.746914980    1
    -1.793118080     2.900805260    21.342480170    2
    -0.680977460    -1.394468670    21.720685360    1
     0.241341360    -2.583542770    21.693217970    2
     0.094352740     0.364511720    20.337289440    1
     1.595277660     0.211364670    20.199670850    2
    -0.547905850     0.470380230    18.970094070    2
    30.339426490    13.337832030    21.734080840    4
    31.616897630    14.530325760    22.262002170    1
    31.325850260    15.934308800    21.868957180    2
    33.087453550    14.040635820    22.961094760    4
    33.061890050    12.249833980    23.141667080    1
    34.510607100    10.708694040    22.083400050    1
    36.095586380    10.661307150    21.782110030    3
    33.481573270     9.237411520    21.823555690    4
    34.044878630     8.305232420    21.780538560    2
    31.716496510     9.011122840    21.748232670    1
    31.198037500     7.399998360    21.884436430    4
    31.823168250     6.464980450    21.868604260    2
    30.160289350     7.254676150    21.781490120    2
    30.493508240    10.217895170    21.518635060    4
    31.149406510    11.740484160    21.930224250    1
     0.720734170     3.613538910    21.799331800    4
     2.480475630     3.376474980    21.785087370    1
     2.742515020     1.896302860    21.780969600    2
     3.966998660     4.961473940    22.439291960    1
     5.171311330     4.844353520    21.517291180    2
     2.659505760     6.755146620    21.808388600    1
     3.340413300     8.342720780    21.768368760    4
     2.748842730     9.257008450    21.693881340    2
     4.389512260     8.465113030    21.780652280    2
     0.931120100     6.711629120    21.822604500    4
     0.001166990     5.271857800    21.828896480    1
    -1.599034760     5.230652140    21.781777310    3
    29.163496030    17.224929200    19.144192970    1
    30.060193920    16.376149790    18.266473040    2
    28.440614400    18.219795310    18.265988200    2
    27.384228260    15.861475940    20.032977620    1
    26.411543210    15.778975330    18.881084910    2
    27.780879150    14.140106880    20.290618040    3
    28.453839700    13.588539470    21.787731280    1
    28.040215220    12.146521400    21.957173350    2
    26.546680600    16.582267150    22.137668910    1
    26.520223740    18.077727760    22.308684820    2
    28.083370070    15.329256120    23.397882870    1
    29.437422170    15.989094100    23.537942280    2
    27.617640120    14.934354210    24.768300530    2
     3.227613410    -0.497878920    23.280824280    3
     4.651791610    -1.221840910    24.013451240    5
     4.526987460    -2.807456000    24.068974300    3
     5.934529660    -0.762373730    23.271685850    3
    25.001246670    15.800116570    22.395066790    3
    24.494740320    15.711016330    24.020543410    5
    22.971777600    15.998754640    24.153087910    3
    25.487296540    16.612380850    24.854457450    3
    24.812614630    14.040361240    24.242416350    3
     7.192602370     3.752155780    28.532068800    1
     6.554946610     4.911279540    29.250325890    2
     7.948249340     2.898883280    29.512995260    2
     5.370488860     2.439893900    27.756753830    1
     4.968441060     1.665392980    28.986654620    2
     4.003472440     3.525476620    27.400770230    3
     3.798163490     4.104521040    25.773254330    1
     2.420829100     3.776911010    25.295102690    2
     5.979744340     1.194955410    25.813497000    1
     7.417491900     0.748395130    25.822815340    2
     5.500421960     3.070999690    24.446891950    1
     6.662806340     4.000012230    24.240617920    2
     5.062812250     2.544628030    23.098574190    2
    28.131978860    10.448827860    25.553053510    4
    28.228157990    12.221707190    25.782216800    1
    26.944786660    12.930742400    25.559089480    2
    29.734272600    12.994638800    26.082348730    4
    30.955730660    11.727208280    26.384087870    1
    33.028392720    11.260479750    25.363827890    1
    34.337290980    12.079379410    25.822506630    3
    33.134995980     9.408378570    25.445977250    4
    34.165251490     9.099742060    25.559409220    2
    32.004311020     8.056346230    25.525451290    1
    32.676100020     6.512298770    25.791040630    4
    33.765722100     6.236443110    25.821799240    2
    32.005961040     5.693698870    25.819213540    2
    30.274034340     8.199755480    25.428603920    4
    29.807517860     9.818047940    25.708734850    1
     3.795614190     5.997726410    25.856207920    4
     5.299494350     6.959628390    25.823611580    1
     6.482121750     6.017859120    25.822518030    2
     5.379623680     9.129317650    26.448273540    1
     6.492033330     9.796006340    25.646569220    2
     3.237487260     9.681898710    25.792959620    1
     2.713964410    11.331072290    25.845560400    4
     1.666585430    11.652628710    25.818022280    2
     3.411911950    12.114985510    25.734667560    2
     1.966778640     8.508234010    25.797401470    4
     2.167864850     6.807405410    25.838891370    1
     0.947253490     5.761414320    25.822512890    3
    24.614017540    12.708876520    23.118599870    1
    25.897823170    12.688439660    22.307047050    2
    23.401779630    12.924500400    22.227665230    2
    24.276966320    10.494773000    24.070080190    1
    23.526951120     9.854126610    22.923400910    2
    25.723425010     9.427930500    24.243510570    3
    26.562333590     9.434649110    25.747846120    1
    27.180005110     8.093855560    25.997544040    2
    23.242832440    10.511177430    26.242331600    1
    22.219905500    11.606953230    26.437548270    2
    25.276966190    10.526096720    27.424954480    1
    25.976250530    11.864905570    27.580008250    2
    25.333893720     9.771325800    28.722164740    2
     8.304162270     4.428493460    27.322221880    3
     9.902894520     4.763709760    27.977735150    5
    10.770705690     3.431589370    27.847134880    3
    10.519219370     5.986586640    27.227022590    3
     4.863094950    -0.071398880    25.467872510    3
    22.614692070     8.901894990    26.526341230    3
    22.298668040     8.475555240    28.170922430    5
    20.940315650     7.707597360    28.282089430    3
    22.510733660     9.810880390    28.984165820    3
    23.642524970     7.438582600    28.544204510    3
     8.960364180    10.137558760    32.584880340    1
     7.800541920    10.686346590    33.379061070    2
    10.136826690     9.827224350    33.467552940    2
     8.217991150     7.951360440    31.850430320    1
     8.331239970     7.268286170    33.201807840    2
     6.449955410     7.894478340    31.529544240    3
     5.957518460     8.147809660    29.878357410    1
     5.027412310     7.061567170    29.424546700    2
     9.480344490     7.206364670    29.910377070    1
    10.875412200     7.799102260    29.951817230    2
     7.942888360     8.377806310    28.545858970    1
     8.357141720     9.826987130    28.457940680    2
     7.772638590     7.845000340    27.140837620    2
    28.623033990     6.646386470    29.828839520    4
    27.623347890     8.098064330    30.291963730    1
    26.191070660     7.970343560    29.865519970    2
    28.353626670     9.496157030    30.943172950    4
    30.122331880     9.194602400    31.172544450    1
    31.876368340    10.314689310    30.069273440    1
    32.243806770    11.880924730    29.951166650    3
    33.177108490     9.071616540    29.820202410    4
    34.185817440     9.488648130    29.843486380    2
    33.113178300     7.292314030    29.792174510    1
    34.614746720     6.509145720    29.933828210    4
    35.631426840     6.965189330    29.954127670    2
    34.579196830     5.456175790    29.863780130    2
    31.712001900     6.290562760    29.600926510    4
    30.323028890     7.182826400    30.038190240    1
     4.769957970     9.630451430    29.978439400    4
     5.331580960    11.310150520    29.988120950    1
     6.846807450    11.325381200    29.951567940    2
     3.999027580    13.021229780    30.667976030    1
     4.336397320    14.203647170    29.775365280    2
     1.980281190    12.046132600    30.039384660    1
     0.524033560    12.980127660    29.979399510    4
    -0.478775190    12.569797830    29.864511240    2
     0.552557530    14.033446360    29.951459900    2
     1.750935540    10.331928110    30.048255200    4
     3.016359100     9.172450900    30.013244610    1
     2.798846670     7.580890820    29.951821340    3
    24.364700170     6.291813300    27.426981410    1
    25.250810870     7.102438720    26.522853920    2
    23.285662760     5.624630580    26.612827020    2
    25.580400700     4.353961170    28.242772650    1
    25.381187140     3.461595180    27.050295460    2
    27.364157460     4.289416240    28.460819950    3
    28.042363310     4.845669680    29.956149040    1
    29.369227540     4.172218670    30.212891630    2
    24.694468490     3.655409870    30.319677770    1
    23.241211060     4.007295610    30.479560110    2
    26.308922480     4.819889370    31.596803530    1
    25.974972500     6.297048550    31.709779350    2
    26.717073500     4.268753620    32.937909320    2
     9.445913790    11.399074590    31.445788330    3
    10.488552990    12.698502000    31.740204560    5
    11.988277240    12.216184390    31.538860500    3
    10.120732180    13.974096330    30.919834220    3
     9.553784450     5.484862310    29.596048570    3
    25.028208610     1.936438100    30.483182920    3
    25.109468270     1.507587610    32.171244630    5
    24.503029470     0.070709380    32.324127140    3
    24.335968810     2.650706150    33.021133790    3
    26.937092950     1.508858590    32.411331410    3
     6.012564600    16.048046240    36.735445290    1
     4.718751670    15.645830400    37.418556860    2
     6.932085280    16.637669180    37.770868820    2
     7.019206430    14.022628210    35.957215270    1
     7.577147690    13.444706400    37.242956380    2
     5.680133060    12.935106400    35.571979560    3
     5.066406800    12.777916690    33.963480860    1
     5.154490700    11.348360480    33.552143750    2
     8.393609070    14.328628250    33.961674040    1
     9.010731990    15.698884920    33.993311850    2
     6.394766590    14.248469180    32.636835990    1
     5.761528740    15.605541900    32.499171070    2
     6.816048900    13.767449080    31.268465640    2
    31.358147740     4.076960610    33.794485540    4
    29.617281370     4.466516870    33.939501710    1
    28.709320520     3.298610370    33.816739850    2
    29.084893610     6.094188670    34.080040500    4
    30.518836390     7.110286540    34.379554610    1
    31.276807880     9.110254670    33.391523580    1
    30.819125700    10.486252530    34.080127150    3
    33.150823020     8.864324150    33.391794430    4
    33.619252810     9.830499920    33.546240180    2
    34.304158110     7.544581120    33.635637180    1
    35.945771570     7.912013400    33.954787870    4
    36.473855130     8.895199800    33.992954640    2
    36.580495050     7.070772930    34.065371900    2
    33.912495950     5.847043100    33.632119020    4
    32.242384750     5.637284570    33.906656780    1
     3.212428310    13.111621220    34.084350720    4
     2.570356780    14.772794340    34.030160070    1
     3.757361130    15.717584620    34.080554310    2
     0.416162440    15.251992850    34.554574950    1
    -0.016540430    16.397976290    33.642257140    2
    -0.496416900    13.194807810    33.990343580    1
    -2.207126090    12.956236160    34.070803390    4
    -2.715827900    11.976807380    34.062941480    2
    -2.839683610    13.798541410    33.992908040    2
     0.429850500    11.738182940    34.005806090    4
     2.136708450    11.647922660    34.070344100    1
     2.967705070    10.275565330    34.080567030    3