# mpirun -np 4 siesta-4.1.5 < GC.fdf > GC.out &

SystemLabel      GC

NumberOfAtoms    29

NumberOfSpecies  4
%block ChemicalSpeciesLabel
    1    1  H
    2    7  N
    3   14  Si
    4    8  O
%endblock ChemicalSpeciesLabel

############################################
# This overrides Defaults.fdf configuration
############################################
MD.TypeOfRun                CG # CG, Verlet
MD.Steps                    0
MaxSCFIterations            600

AtomicCoordinatesFormat NotScaledCartesianAng
%block AtomicCoordinatesAndAtomicSpecies
    -0.8114677738565985 6.344699156308547 0.0  1  1  H
    -1.5179545038565985 5.554662976308547 0.0  2  2  N
    -3.2482414138565985 5.996026886308547 0.0  3  3  Si
    -3.4040210938565982 7.486019146308547 0.0  1  4  H
    -4.771563033856599 4.437119366308547 0.0  3  5  Si
    -6.254750663856599 4.679949726308547 0.0  1  6  H
    -3.5731721738565985 2.523843206308547 0.0  3  7  Si
    -4.339197633856599 0.9911264663085471 0.0  2  8  N
    -3.7489510838565985 0.03391343630854715 0.0  1  9  H
    -5.390819953856599 0.9106662363085472 0.0  1  10  H
    -1.8569721138565984 2.579017516308547 0.0  2  11  N
    -0.7819494938565985 3.909356356308547 0.0  3  12  Si
    0.8267238261434013 3.8905460963085474 0.0  4  13  O
    5.6164483 -7.44953905 0.0  1  14  H
    4.58206954 -7.2320376 0.0  2  15  N
    3.29666389 -8.492636 0.0  3  16  Si
    3.80117524 -9.90371886 -0.0  1  17  H
    1.65934232 -8.01362137 0.0  2  18  N
    1.68097912 -6.20463398 -0.0  3  19  Si
    0.54543521 -4.28636135 0.0  3  20  Si
    -1.03431493 -3.94450034 0.0  4  21  O
    1.73226934 -2.87719605 0.0  2  22  N
    1.20957366 -1.92961761 -0.0  1  23  H
    3.50853448 -2.77677601 0.0  3  24  Si
    4.13684451 -1.17938608 0.0  2  25  N
    3.54296161 -0.26248101 0.0  1  26  H
    5.18364407 -1.05231197 -0.0  1  27  H
    4.63288658 -4.07521596 -0.0  2  28  N
    3.79410501 -5.58634043 0.0  3  29  Si
%endblock AtomicCoordinatesAndAtomicSpecies

%include ../../../../Defaults.fdf