# mpirun -np 4 siesta-4.1.5 < GC.fdf > GC.out &

SystemLabel      GC

NumberOfAtoms    29

NumberOfSpecies  4
%block ChemicalSpeciesLabel
    1    1  H
    2    7  N
    3   14  Si
    4    8  O
%endblock ChemicalSpeciesLabel

############################################
# This overrides Defaults.fdf configuration
############################################
MD.TypeOfRun                CG # CG, Verlet
MD.Steps                    0
MaxSCFIterations            600

AtomicCoordinatesFormat NotScaledCartesianAng
%block AtomicCoordinatesAndAtomicSpecies
    -0.14702491638775372 5.355808777307142 0.0  1  1  H
    -0.8535116463877537 4.5657725973071415 0.0  2  2  N
    -2.5837985563877535 5.007136507307141 0.0  3  3  Si
    -2.7395782363877537 6.497128767307141 0.0  1  4  H
    -4.107120176387754 3.4482289873071412 0.0  3  5  Si
    -5.590307806387754 3.6910593473071414 0.0  1  6  H
    -2.9087293163877534 1.5349528273071416 0.0  3  7  Si
    -3.6747547763877537 0.002236087307141421 0.0  2  8  N
    -3.0845082263877535 -0.9549769426928585 0.0  1  9  H
    -4.726377096387754 -0.07822414269285849 0.0  1  10  H
    -1.1925292563877536 1.5901271373071415 0.0  2  11  N
    -0.11750663638775372 2.9204659773071415 0.0  3  12  Si
    1.4911666836122461 2.9016557173071416 0.0  4  13  O
    5.6164483 -7.44953905 0.0  1  14  H
    4.58206954 -7.2320376 0.0  2  15  N
    3.29666389 -8.492636 0.0  3  16  Si
    3.80117524 -9.90371886 -0.0  1  17  H
    1.65934232 -8.01362137 0.0  2  18  N
    1.68097912 -6.20463398 -0.0  3  19  Si
    0.54543521 -4.28636135 0.0  3  20  Si
    -1.03431493 -3.94450034 0.0  4  21  O
    1.73226934 -2.87719605 0.0  2  22  N
    1.20957366 -1.92961761 -0.0  1  23  H
    3.50853448 -2.77677601 0.0  3  24  Si
    4.13684451 -1.17938608 0.0  2  25  N
    3.54296161 -0.26248101 0.0  1  26  H
    5.18364407 -1.05231197 -0.0  1  27  H
    4.63288658 -4.07521596 -0.0  2  28  N
    3.79410501 -5.58634043 0.0  3  29  Si
%endblock AtomicCoordinatesAndAtomicSpecies

%include ../../../../Defaults.fdf