# mpirun -np 4 siesta-4.1.5 < AT.fdf > AT.out &

SystemLabel      AT

NumberOfAtoms    30

NumberOfSpecies  4
%block ChemicalSpeciesLabel
    1    1  H
    2    7  N
    3   14  Si
    4    8  O
%endblock ChemicalSpeciesLabel

############################################
# This overrides Defaults.fdf configuration
############################################
MD.TypeOfRun                Verlet # CG, Verlet
MD.Steps                    0
MaxSCFIterations            300

AtomicCoordinatesFormat NotScaledCartesianAng
%block AtomicCoordinatesAndAtomicSpecies
    2.28494382 -5.19529124 0.0  1  1  H
    1.37433094 -4.6647107 0.0  2  2  N
    -0.21830245 -5.49458215 0.0  3  3  Si
    -0.17484108 -6.98516892 0.0  1  4  H
    -1.66171682 -4.58600741 0.0  2  5  N
    -1.09026419 -2.87456374 0.0  3  6  Si
    -1.53038332 -0.70765692 0.0  3  7  Si
    -3.14415959 -0.09186471 0.0  2  8  N
    -3.40268075 0.95848335 0.0  1  9  H
    -3.95073599 -0.76720972 0.0  1  10  H
    -0.17836637 0.41349951 0.0  2  11  N
    1.49520211 -0.0473996 0.0  3  12  Si
    2.45603905 1.10727302 0.0  1  13  H
    2.30451743 -1.58574382 0.0  2  14  N
    1.10725559 -2.84610319 0.0  3  15  Si
    0.6090803018910221 7.268234692697772 0.0  1  16  H
    -0.1996303781089779 6.576028812697771 0.0  2  17  N
    -1.856220218108978 7.2891489126977715 0.0  3  18  Si
    -1.759355048108978 8.799874122697771 0.0  1  19  H
    -3.5823765681089776 5.946100782697771 0.0  3  20  Si
    -5.936830818108978 5.9381138526977715 0.0  3  21  Si
    -6.499248938108979 6.672603502697771 -1.20183078  1  22  H
    -6.236644568108979 4.459022722697771 -0.08618332  1  23  H
    -6.499361398108978 6.502946312697771 1.28814761  1  24  H
    -2.652985928108978 3.8755295526977713 0.0  3  25  Si
    -3.602454288108978 2.586993422697771 0.0  4  26  O
    -0.8620410581089779 3.7017940826977713 0.0  2  27  N
    -0.5310496981089778 2.6694371026977715 0.0  1  28  H
    0.4464171618910221 4.896340502697771 0.0  3  29  Si
    2.012354091891022 4.6290936526977715 0.0  4  30  O
%endblock AtomicCoordinatesAndAtomicSpecies

%include ../../../../Defaults.fdf
