SystemLabel      GC

NumberOfAtoms    29

NumberOfSpecies  4
%block ChemicalSpeciesLabel
    1    8  O
    2    7  N
    3   14  Si
    4    1  H
%endblock ChemicalSpeciesLabel

# Single point calculation
MD.TypeOfRun                CG
MD.Steps                    0
SCF.MustConverge            F # In case it does not. There can be 2 very close atoms

AtomicCoordinatesFormat NotScaledCartesianAng
%block AtomicCoordinatesAndAtomicSpecies
0.958671510    3.803529300    0.000000000       1
-3.038688210   0.998073330    0.000000000       2
2.066567750    1.099065770    0.000000000       2
1.029569860    -1.834680850   0.000000000       2
-2.108567660   -1.881798240   0.000000000       2
3.912411070    -1.180894430   0.000000000       2
-1.235636790   1.044983000    0.000000000       3
-0.501909240   -1.031832280   0.000000000       3
0.629463280    2.232755840    0.000000000       3
2.280054370    -0.658293540   0.000000000       3
-3.424812990   -0.662324160   0.000000000       3
2.965974160    1.682263990    0.000000000       4
-4.796229390   -1.238728480   0.000000000       4
4.096559410    -2.214148760   0.000000000       4
4.792108680    -0.529147250   0.000000000       4
-2.266861300   -2.922393730   0.000000000       4
4.299603385    4.635866107    0.000000000       3
6.225081135    5.827495437    0.000000000       3
5.760274745    1.901311737    0.000000000       3
7.831454665    4.348358327    0.000000000       3
4.401887925    2.926511417    0.000000000       2
2.720225295    5.306095597    0.000000000       2
7.413344645    2.616475417    0.000000000       2
6.533571955    7.292156797    0.000000000       4
9.323127575    4.548337787    0.000000000       4
2.535598855    6.340969327    0.000000000       4
1.828133505    4.634806867    0.000000000       4
5.750144145    0.303083217    0.000000000       1
8.189943025    1.894645217    0.000000000       4
%endblock AtomicCoordinatesAndAtomicSpecies

%include ../../../Defaults.fdf
