# mpirun -np 4 siesta-4.1.5 < AT.fdf > AT.out &

SystemLabel      AT

NumberOfAtoms    30

NumberOfSpecies  4
%block ChemicalSpeciesLabel
    1    1  H
    2    7  N
    3   14  Si
    4    8  O
%endblock ChemicalSpeciesLabel

############################################
# This overrides Defaults.fdf configuration
############################################
MD.TypeOfRun                Verlet # CG, Verlet
MD.Steps                    0
MaxSCFIterations            200
SCF.MustConverge            F

AtomicCoordinatesFormat NotScaledCartesianAng
%block AtomicCoordinatesAndAtomicSpecies
    2.28494382 -5.19529124 0.0  1  1  H
    1.37433094 -4.6647107 0.0  2  2  N
    -0.21830245 -5.49458215 0.0  3  3  Si
    -0.17484108 -6.98516892 0.0  1  4  H
    -1.66171682 -4.58600741 0.0  2  5  N
    -1.09026419 -2.87456374 0.0  3  6  Si
    -1.53038332 -0.70765692 0.0  3  7  Si
    -3.14415959 -0.09186471 0.0  2  8  N
    -3.40268075 0.95848335 0.0  1  9  H
    -3.95073599 -0.76720972 0.0  1  10  H
    -0.17836637 0.41349951 0.0  2  11  N
    1.49520211 -0.0473996 0.0  3  12  Si
    2.45603905 1.10727302 0.0  1  13  H
    2.30451743 -1.58574382 0.0  2  14  N
    1.10725559 -2.84610319 0.0  3  15  Si
    0.011188400375617968 11.556613587832363 0.0  1  16  H
    -0.797522279624382 10.864407707832362 0.0  2  17  N
    -2.454112119624382 11.577527807832361 0.0  3  18  Si
    -2.3572469496243817 13.088253017832361 0.0  1  19  H
    -4.180268469624382 10.234479677832361 0.0  3  20  Si
    -6.534722719624382 10.226492747832362 0.0  3  21  Si
    -7.097140839624382 10.96098239783236 -1.20183078  1  22  H
    -6.834536469624382 8.747401617832361 -0.08618332  1  23  H
    -7.0972532996243824 10.791325207832362 1.28814761  1  24  H
    -3.250877829624382 8.163908447832362 0.0  3  25  Si
    -4.200346189624382 6.875372317832362 0.0  4  26  O
    -1.459932959624382 7.990172977832362 0.0  2  27  N
    -1.128941599624382 6.957815997832362 0.0  1  28  H
    -0.15147473962438207 9.18471939783236 0.0  3  29  Si
    1.4144621903756178 8.91747254783236 0.0  4  30  O
%endblock AtomicCoordinatesAndAtomicSpecies

#############
# Unit Cell
#############
LatticeConstant 1.0 Ang
%block LatticeVectors
    30.00000    0.000000    0.000000
    0.000000    45.00000    0.000000
    0.000000    0.000000    10.00000
%endblock LatticeVectors

%include ../../../../Defaults.fdf
