# mpirun -np 4 siesta-4.1.5 < AT.fdf > AT.out &

SystemLabel      AT

NumberOfAtoms    30

NumberOfSpecies  4
%block ChemicalSpeciesLabel
    1    1  H
    2    7  N
    3   14  Si
    4    8  O
%endblock ChemicalSpeciesLabel

############################################
# This overrides Defaults.fdf configuration
############################################
MD.TypeOfRun                Verlet # CG, Verlet
MD.Steps                    0
MaxSCFIterations            200
SCF.MustConverge            F

AtomicCoordinatesFormat NotScaledCartesianAng
%block AtomicCoordinatesAndAtomicSpecies
    2.28494382 -5.19529124 0.0  1  1  H
    1.37433094 -4.6647107 0.0  2  2  N
    -0.21830245 -5.49458215 0.0  3  3  Si
    -0.17484108 -6.98516892 0.0  1  4  H
    -1.66171682 -4.58600741 0.0  2  5  N
    -1.09026419 -2.87456374 0.0  3  6  Si
    -1.53038332 -0.70765692 0.0  3  7  Si
    -3.14415959 -0.09186471 0.0  2  8  N
    -3.40268075 0.95848335 0.0  1  9  H
    -3.95073599 -0.76720972 0.0  1  10  H
    -0.17836637 0.41349951 0.0  2  11  N
    1.49520211 -0.0473996 0.0  3  12  Si
    2.45603905 1.10727302 0.0  1  13  H
    2.30451743 -1.58574382 0.0  2  14  N
    1.10725559 -2.84610319 0.0  3  15  Si
    0.14169282624283558 10.620570761040177 0.0  1  16  H
    -0.6670178537571645 9.928364881040178 0.0  2  17  N
    -2.3236076937571646 10.641484981040179 0.0  3  18  Si
    -2.2267425237571645 12.152210191040178 0.0  1  19  H
    -4.049764043757165 9.298436851040178 0.0  3  20  Si
    -6.404218293757165 9.290449921040178 0.0  3  21  Si
    -6.966636413757165 10.024939571040179 -1.20183078  1  22  H
    -6.704032043757165 7.811358791040178 -0.08618332  1  23  H
    -6.966748873757164 9.855282381040178 1.28814761  1  24  H
    -3.1203734037571644 7.227865621040178 0.0  3  25  Si
    -4.069841763757164 5.939329491040178 0.0  4  26  O
    -1.3294285337571645 7.054130151040178 0.0  2  27  N
    -0.9984371737571645 6.021773171040178 0.0  1  28  H
    -0.02097031375716446 8.248676571040178 0.0  3  29  Si
    1.5449666162428355 7.981429721040178 0.0  4  30  O
%endblock AtomicCoordinatesAndAtomicSpecies

#############
# Unit Cell
#############
LatticeConstant 1.0 Ang
%block LatticeVectors
    30.00000    0.000000    0.000000
    0.000000    45.00000    0.000000
    0.000000    0.000000    10.00000
%endblock LatticeVectors

%include ../../../../Defaults.fdf
