# mpirun -np 4 siesta-4.1.5 < AT.fdf > AT.out &

SystemLabel      AT

NumberOfAtoms    30

NumberOfSpecies  4
%block ChemicalSpeciesLabel
    1    1  H
    2    7  N
    3   14  Si
    4    8  O
%endblock ChemicalSpeciesLabel

############################################
# This overrides Defaults.fdf configuration
############################################
MD.TypeOfRun                Verlet # CG, Verlet
MD.Steps                    0
MaxSCFIterations            200
SCF.MustConverge            F

AtomicCoordinatesFormat NotScaledCartesianAng
%block AtomicCoordinatesAndAtomicSpecies
    2.28494382 -5.19529124 0.0  1  1  H
    1.37433094 -4.6647107 0.0  2  2  N
    -0.21830245 -5.49458215 0.0  3  3  Si
    -0.17484108 -6.98516892 0.0  1  4  H
    -1.66171682 -4.58600741 0.0  2  5  N
    -1.09026419 -2.87456374 0.0  3  6  Si
    -1.53038332 -0.70765692 0.0  3  7  Si
    -3.14415959 -0.09186471 0.0  2  8  N
    -3.40268075 0.95848335 0.0  1  9  H
    -3.95073599 -0.76720972 0.0  1  10  H
    -0.17836637 0.41349951 0.0  2  11  N
    1.49520211 -0.0473996 0.0  3  12  Si
    2.45603905 1.10727302 0.0  1  13  H
    2.30451743 -1.58574382 0.0  2  14  N
    1.10725559 -2.84610319 0.0  3  15  Si
    0.27219725211005336 9.684527934247994 0.0  1  16  H
    -0.5365134278899466 8.992322054247992 0.0  2  17  N
    -2.1931032678899465 9.705442154247994 0.0  3  18  Si
    -2.0962380978899464 11.216167364247994 0.0  1  19  H
    -3.9192596178899466 8.362394024247994 0.0  3  20  Si
    -6.2737138678899464 8.354407094247993 0.0  3  21  Si
    -6.836131987889947 9.088896744247993 -1.20183078  1  22  H
    -6.573527617889947 6.875315964247993 -0.08618332  1  23  H
    -6.836244447889946 8.919239554247994 1.28814761  1  24  H
    -2.9898689778899468 6.291822794247993 0.0  3  25  Si
    -3.9393373378899468 5.003286664247993 0.0  4  26  O
    -1.1989241078899466 6.118087324247993 0.0  2  27  N
    -0.8679327478899466 5.0857303442479935 0.0  1  28  H
    0.10953411211005332 7.312633744247993 0.0  3  29  Si
    1.6754710421100532 7.045386894247994 0.0  4  30  O
%endblock AtomicCoordinatesAndAtomicSpecies

#############
# Unit Cell
#############
LatticeConstant 1.0 Ang
%block LatticeVectors
    30.00000    0.000000    0.000000
    0.000000    45.00000    0.000000
    0.000000    0.000000    10.00000
%endblock LatticeVectors

%include ../../../../Defaults.fdf
