SystemLabel      AT

NumberOfAtoms    30

NumberOfSpecies  4
%block ChemicalSpeciesLabel
    1    1  H
    2    7  N
    3   14  Si
    4    8  O
%endblock ChemicalSpeciesLabel

# Single point calculation
MD.TypeOfRun                CG
MD.Steps                    0
SCF.MustConverge            F # In case it does not. There can be 2 very close atoms

AtomicCoordinatesFormat NotScaledCartesianAng
%block AtomicCoordinatesAndAtomicSpecies
2.582377650    -5.776830440   0.000000000       1
1.654759240    -5.269361980   0.000000000       2
0.063128840    -6.101704590   0.000000000       3
0.119223240    -7.596849500   0.000000000       1
-1.376892050   -5.182603740   0.000000000       2
-0.824371900   -3.460866440   0.000000000       3
-1.170571480   -1.270002100   0.000000000       3
-2.706933680   -0.417515780   0.000000000       2
-2.754569660   0.634858620    0.000000000       1
-3.637675640   -0.909967860   0.000000000       1
0.218091790    -0.234193970   0.000000000       2
1.872004100    -0.697162300   0.000000000       3
2.828001130    0.461464770    0.000000000       1
2.648150080    -2.255024470   0.000000000       2
1.391921380    -3.454727220   0.000000000       3
1.895639493    4.965504422    0.000000000       2
0.568267973    6.175708722    0.000000000       3
1.208269243    7.537026962    0.000000000       1
-1.517477967   5.505177372    0.000000000       3
-3.547040567   6.635293562    0.000000000       3
-3.392804797   7.795523772    0.940305280       1
-4.532975287   5.613372942    0.512613700       1
-3.963255527   7.111519412    -1.366678340      1
-1.450982547   3.231200752    0.000000000       3
-2.490031277   2.038141252    0.000000000       4
0.206009033    2.597225562    0.000000000       2
0.187991663    1.534780732    0.000000000       1
1.829612103    3.194295772    0.000000000       3
3.024628273    2.179870572    0.000000000       4
2.895676863    5.311011522    0.000000000       1
%endblock AtomicCoordinatesAndAtomicSpecies

%include ../../../Defaults.fdf
