SystemLabel      AT

NumberOfAtoms    30

NumberOfSpecies  4
%block ChemicalSpeciesLabel
    1    1  H
    2    7  N
    3   14  Si
    4    8  O
%endblock ChemicalSpeciesLabel

# Single point calculation
MD.TypeOfRun                CG
MD.Steps                    0
SCF.MustConverge            F # In case it does not. There can be 2 very close atoms

AtomicCoordinatesFormat NotScaledCartesianAng
%block AtomicCoordinatesAndAtomicSpecies
2.582377650    -5.776830440   0.000000000       1
1.654759240    -5.269361980   0.000000000       2
0.063128840    -6.101704590   0.000000000       3
0.119223240    -7.596849500   0.000000000       1
-1.376892050   -5.182603740   0.000000000       2
-0.824371900   -3.460866440   0.000000000       3
-1.170571480   -1.270002100   0.000000000       3
-2.706933680   -0.417515780   0.000000000       2
-2.754569660   0.634858620    0.000000000       1
-3.637675640   -0.909967860   0.000000000       1
0.218091790    -0.234193970   0.000000000       2
1.872004100    -0.697162300   0.000000000       3
2.828001130    0.461464770    0.000000000       1
2.648150080    -2.255024470   0.000000000       2
1.391921380    -3.454727220   0.000000000       3
1.900438064    4.683493962    0.000000000       2
0.573066544    5.893698262    0.000000000       3
1.213067814    7.255016502    0.000000000       1
-1.512679396   5.223166912    0.000000000       3
-3.542241996   6.353283102    0.000000000       3
-3.388006226   7.513513312    0.940305280       1
-4.528176716   5.331362482    0.512613700       1
-3.958456956   6.829508952    -1.366678340      1
-1.446183976   2.949190292    0.000000000       3
-2.485232706   1.756130792    0.000000000       4
0.210807604    2.315215102    0.000000000       2
0.192790234    1.252770272    0.000000000       1
1.834410674    2.912285312    0.000000000       3
3.029426844    1.897860112    0.000000000       4
2.900475434    5.029001062    0.000000000       1
%endblock AtomicCoordinatesAndAtomicSpecies

%include ../../../Defaults.fdf
