SystemLabel      AT

NumberOfAtoms    30

NumberOfSpecies  4
%block ChemicalSpeciesLabel
    1    1  H
    2    7  N
    3   14  Si
    4    8  O
%endblock ChemicalSpeciesLabel

# Single point calculation
MD.TypeOfRun                CG
MD.Steps                    0
SCF.MustConverge            F # In case it does not. There can be 2 very close atoms

AtomicCoordinatesFormat NotScaledCartesianAng
%block AtomicCoordinatesAndAtomicSpecies
2.582377650    -5.776830440   0.000000000       1
1.654759240    -5.269361980   0.000000000       2
0.063128840    -6.101704590   0.000000000       3
0.119223240    -7.596849500   0.000000000       1
-1.376892050   -5.182603740   0.000000000       2
-0.824371900   -3.460866440   0.000000000       3
-1.170571480   -1.270002100   0.000000000       3
-2.706933680   -0.417515780   0.000000000       2
-2.754569660   0.634858620    0.000000000       1
-3.637675640   -0.909967860   0.000000000       1
0.218091790    -0.234193970   0.000000000       2
1.872004100    -0.697162300   0.000000000       3
2.828001130    0.461464770    0.000000000       1
2.648150080    -2.255024470   0.000000000       2
1.391921380    -3.454727220   0.000000000       3
1.876445210    6.093546261    0.000000000       2
0.549073690    7.303750561    0.000000000       3
1.189074960    8.665068801    0.000000000       1
-1.536672250   6.633219211    0.000000000       3
-3.566234850   7.763335401    0.000000000       3
-3.411999080   8.923565611    0.940305280       1
-4.552169570   6.741414781    0.512613700       1
-3.982449810   8.239561251    -1.366678340      1
-1.470176830   4.359242591    0.000000000       3
-2.509225560   3.166183091    0.000000000       4
0.186814750    3.725267401    0.000000000       2
0.168797380    2.662822571    0.000000000       1
1.810417820    4.322337611    0.000000000       3
3.005433990    3.307912411    0.000000000       4
2.876482580    6.439053361    0.000000000       1
%endblock AtomicCoordinatesAndAtomicSpecies

%include ../../../Defaults.fdf
