# mpirun -np 4 siesta-4.1.5 < GC.fdf > GC.out &

SystemLabel      GC

NumberOfAtoms    29

NumberOfSpecies  4
%block ChemicalSpeciesLabel
    1    1  H
    2    7  N
    3   14  Si
    4    8  O
%endblock ChemicalSpeciesLabel

############################################
# This overrides Defaults.fdf configuration
############################################
MD.TypeOfRun                CG # CG, Verlet
MD.Steps                    0
MaxSCFIterations            600

AtomicCoordinatesFormat NotScaledCartesianAng
%block AtomicCoordinatesAndAtomicSpecies
    0.10214115516306321 4.9849748851816145 0.0  1  1  H
    -0.6043455748369367 4.194938705181615 0.0  2  2  N
    -2.334632484836937 4.636302615181615 0.0  3  3  Si
    -2.4904121648369366 6.126294875181615 0.0  1  4  H
    -3.857954104836937 3.0773950951816147 0.0  3  5  Si
    -5.341141734836937 3.320225455181615 0.0  1  6  H
    -2.659563244836937 1.1641189351816146 0.0  3  7  Si
    -3.4255887048369367 -0.36859780481838555 0.0  2  8  N
    -2.835342154836937 -1.3258108348183855 0.0  1  9  H
    -4.477211024836937 -0.44905803481838547 0.0  1  10  H
    -0.9433631848369367 1.2192932451816145 0.0  2  11  N
    0.13165943516306322 2.5496320851816145 0.0  3  12  Si
    1.7403327551630632 2.5308218251816146 0.0  4  13  O
    5.6164483 -7.44953905 0.0  1  14  H
    4.58206954 -7.2320376 0.0  2  15  N
    3.29666389 -8.492636 0.0  3  16  Si
    3.80117524 -9.90371886 -0.0  1  17  H
    1.65934232 -8.01362137 0.0  2  18  N
    1.68097912 -6.20463398 -0.0  3  19  Si
    0.54543521 -4.28636135 0.0  3  20  Si
    -1.03431493 -3.94450034 0.0  4  21  O
    1.73226934 -2.87719605 0.0  2  22  N
    1.20957366 -1.92961761 -0.0  1  23  H
    3.50853448 -2.77677601 0.0  3  24  Si
    4.13684451 -1.17938608 0.0  2  25  N
    3.54296161 -0.26248101 0.0  1  26  H
    5.18364407 -1.05231197 -0.0  1  27  H
    4.63288658 -4.07521596 -0.0  2  28  N
    3.79410501 -5.58634043 0.0  3  29  Si
%endblock AtomicCoordinatesAndAtomicSpecies

%include ../../../../Defaults.fdf