# mpirun -np 4 siesta-4.1.5 < AT.fdf > AT.out &

SystemLabel      AT

NumberOfAtoms    30

NumberOfSpecies  4
%block ChemicalSpeciesLabel
    1    1  H
    2    7  N
    3   14  Si
    4    8  O
%endblock ChemicalSpeciesLabel

############################################
# This overrides Defaults.fdf configuration
############################################
MD.TypeOfRun                Verlet # CG, Verlet
MD.Steps                    0
MaxSCFIterations            200
SCF.MustConverge            F

AtomicCoordinatesFormat NotScaledCartesianAng
%block AtomicCoordinatesAndAtomicSpecies
    2.28494382 -5.19529124 0.0  1  1  H
    1.37433094 -4.6647107 0.0  2  2  N
    -0.21830245 -5.49458215 0.0  3  3  Si
    -0.17484108 -6.98516892 0.0  1  4  H
    -1.66171682 -4.58600741 0.0  2  5  N
    -1.09026419 -2.87456374 0.0  3  6  Si
    -1.53038332 -0.70765692 0.0  3  7  Si
    -3.14415959 -0.09186471 0.0  2  8  N
    -3.40268075 0.95848335 0.0  1  9  H
    -3.95073599 -0.76720972 0.0  1  10  H
    -0.17836637 0.41349951 0.0  2  11  N
    1.49520211 -0.0473996 0.0  3  12  Si
    2.45603905 1.10727302 0.0  1  13  H
    2.30451743 -1.58574382 0.0  2  14  N
    1.10725559 -2.84610319 0.0  3  15  Si
    -1.5118180124370328 22.480375126174824 0.0  1  16  H
    -2.320528692437033 21.788169246174824 0.0  2  17  N
    -3.977118532437033 22.501289346174826 0.0  3  18  Si
    -3.880253362437033 24.012014556174826 0.0  1  19  H
    -5.703274882437032 21.158241216174822 0.0  3  20  Si
    -8.057729132437032 21.150254286174825 0.0  3  21  Si
    -8.620147252437032 21.884743936174825 -1.20183078  1  22  H
    -8.357542882437034 19.671163156174824 -0.08618332  1  23  H
    -8.620259712437033 21.715086746174826 1.28814761  1  24  H
    -4.773884242437033 19.087669986174824 0.0  3  25  Si
    -5.723352602437033 17.799133856174823 0.0  4  26  O
    -2.9829393724370328 18.913934516174823 0.0  2  27  N
    -2.6519480124370327 17.881577536174824 0.0  1  28  H
    -1.6744811524370329 20.108480936174825 0.0  3  29  Si
    -0.10854422243703299 19.841234086174826 0.0  4  30  O
%endblock AtomicCoordinatesAndAtomicSpecies

#############
# Unit Cell
#############
LatticeConstant 1.0 Ang
%block LatticeVectors
    30.00000    0.000000    0.000000
    0.000000    45.00000    0.000000
    0.000000    0.000000    10.00000
%endblock LatticeVectors

%include ../../../../Defaults.fdf
