SystemLabel      GC

NumberOfAtoms    29

NumberOfSpecies  4
%block ChemicalSpeciesLabel
    1    8  O
    2    7  N
    3   14  Si
    4    1  H
%endblock ChemicalSpeciesLabel

# Single point calculation
MD.TypeOfRun                CG
MD.Steps                    0
SCF.MustConverge            F # In case it does not. There can be 2 very close atoms

AtomicCoordinatesFormat NotScaledCartesianAng
%block AtomicCoordinatesAndAtomicSpecies
0.854927710    3.902811360    0.000000000       1
-3.151486600   0.823854130    0.000000000       2
1.928518680    1.174000900    0.000000000       2
0.979899500    -1.830275890   0.000000000       2
-2.159258930   -2.028004800   0.000000000       2
3.785319770    -1.112700660   0.000000000       2
-1.345933810   0.976250250    0.000000000       3
-0.599439880   -1.096077170   0.000000000       3
0.453182890    2.350510230    0.000000000       3
2.133302030    -0.576510800   0.000000000       3
-3.516065660   -0.842056510   0.000000000       3
2.824527830    1.754723110    0.000000000       4
-4.877551690   -1.469214660   0.000000000       4
3.994952020    -2.143204000   0.000000000       4
4.620903610    -0.483666060   0.000000000       4
-2.279085180   -3.081514090   0.000000000       4
4.747044251    4.963945812    -0.000000000      3
6.616003741    6.223589442    -0.000000000      3
6.157071361    2.222207592    -0.000000000      3
8.224664081    4.728798812    -0.000000000      3
4.806574201    3.278993352    -0.000000000      2
3.117045051    5.594006042    -0.000000000      2
7.800960231    3.013298002    -0.000000000      2
6.896367441    7.693811962    -0.000000000      4
9.720075461    4.947651352    -0.000000000      4
2.872586061    6.612471992    -0.000000000      4
2.290303871    4.937157912    -0.000000000      4
6.216347121    0.639765562    -0.000000000      1
8.572615821    2.286330642    -0.000000000      4
%endblock AtomicCoordinatesAndAtomicSpecies

%include ../../../Defaults.fdf
