# mpirun -np 4 siesta-4.1.5 < AT.fdf > AT.out &

SystemLabel      AT

NumberOfAtoms    30

NumberOfSpecies  4
%block ChemicalSpeciesLabel
    1    1  H
    2    7  N
    3   14  Si
    4    8  O
%endblock ChemicalSpeciesLabel

############################################
# This overrides Defaults.fdf configuration
############################################
MD.TypeOfRun                Verlet # CG, Verlet
MD.Steps                    600
MD.Quench                   True

AtomicCoordinatesFormat NotScaledCartesianAng
%block AtomicCoordinatesAndAtomicSpecies
    2.2916373727193524 -5.243300738276171 0.0  1  1  H
    1.381024492719352 -4.712720198276171 0.0  2  2  N
    -0.21160889728064786 -5.542591648276171 0.0  3  3  Si
    -0.16814752728064786 -7.0331784182761705 0.0  1  4  H
    -1.655023267280648 -4.634016908276171 0.0  2  5  N
    -1.083570637280648 -2.9225732382761715 0.0  3  6  Si
    -1.523689767280648 -0.7556664182761712 0.0  3  7  Si
    -3.1374660372806478 -0.13987420827617122 0.0  2  8  N
    -3.3959871972806477 0.9104738517238288 0.0  1  9  H
    -3.9440424372806477 -0.8152192182761712 0.0  1  10  H
    -0.17167281728064784 0.3654900117238288 0.0  2  11  N
    1.501895662719352 -0.09540909827617122 0.0  3  12  Si
    2.462732602719352 1.0592635217238289 0.0  1  13  H
    2.30451743 -1.58574382 0.0  2  14  N
    1.10725559 -2.84610319 0.0  3  15  Si
    0.61321457 7.23858166 0.0  1  16  H
    -0.19549611 6.54637578 0.0  2  17  N
    -1.85208595 7.25949588 0.0  3  18  Si
    -1.75522078 8.77022109 0.0  1  19  H
    -3.5782423 5.91644775 0.0  3  20  Si
    -5.93269655 5.90846082 0.0  3  21  Si
    -6.49511467 6.64295047 -1.20183078  1  22  H
    -6.2325103 4.42936969 -0.08618332  1  23  H
    -6.49522713 6.47329328 1.28814761  1  24  H
    -2.64885166 3.84587652 0.0  3  25  Si
    -3.59832002 2.55734039 0.0  4  26  O
    -0.85790679 3.67214105 0.0  2  27  N
    -0.52691543 2.63978407 0.0  1  28  H
    0.45055143 4.86668747 0.0  3  29  Si
    2.01648836 4.59944062 0.0  4  30  O
%endblock AtomicCoordinatesAndAtomicSpecies

#############
# Unit Cell
#############
LatticeConstant 1.0 Ang
%block LatticeVectors
    18.005604    0.000000    0.000000
    0.000000   24.777729    0.000000
    0.000000    0.000000   10.327559
%endblock LatticeVectors

%block Geometry.Constraints
    atom all 0.0 0.0 1.0 # constrain along z Cartesian vector
    clear-prev [22 -- 24]
%endblock

%include ../../../../Defaults.fdf