# mpirun -np 4 siesta-4.1.5 < AT.fdf > AT.out &

SystemLabel      AT

NumberOfAtoms    30

NumberOfSpecies  4
%block ChemicalSpeciesLabel
    1    1  H
    2    7  N
    3   14  Si
    4    8  O
%endblock ChemicalSpeciesLabel

############################################
# This overrides Defaults.fdf configuration
############################################
MD.TypeOfRun                Verlet # CG, Verlet
MD.Steps                    0
MaxSCFIterations            200
SCF.MustConverge            F

AtomicCoordinatesFormat NotScaledCartesianAng
%block AtomicCoordinatesAndAtomicSpecies
    2.28494382 -5.19529124 0.0  1  1  H
    1.37433094 -4.6647107 0.0  2  2  N
    -0.21830245 -5.49458215 0.0  3  3  Si
    -0.17484108 -6.98516892 0.0  1  4  H
    -1.66171682 -4.58600741 0.0  2  5  N
    -1.09026419 -2.87456374 0.0  3  6  Si
    -1.53038332 -0.70765692 0.0  3  7  Si
    -3.14415959 -0.09186471 0.0  2  8  N
    -3.40268075 0.95848335 0.0  1  9  H
    -3.95073599 -0.76720972 0.0  1  10  H
    -0.17836637 0.41349951 0.0  2  11  N
    1.49520211 -0.0473996 0.0  3  12  Si
    2.45603905 1.10727302 0.0  1  13  H
    2.30451743 -1.58574382 0.0  2  14  N
    1.10725559 -2.84610319 0.0  3  15  Si
    0.7507134802898513 6.252370902676653 0.0  1  16  H
    -0.05799719971014869 5.560165022676653 0.0  2  17  N
    -1.7145870397101486 6.273285122676653 0.0  3  18  Si
    -1.6177218697101485 7.784010332676653 0.0  1  19  H
    -3.4407433897101485 4.930236992676653 0.0  3  20  Si
    -5.795197639710149 4.922250062676653 0.0  3  21  Si
    -6.357615759710149 5.656739712676653 -1.20183078  1  22  H
    -6.095011389710149 3.4431589326766527 -0.08618332  1  23  H
    -6.357728219710149 5.487082522676653 1.28814761  1  24  H
    -2.5113527497101487 2.859665762676653 0.0  3  25  Si
    -3.4608211097101487 1.5711296326766528 0.0  4  26  O
    -0.7204078797101487 2.685930292676653 0.0  2  27  N
    -0.3894165197101487 1.6535733126766532 0.0  1  28  H
    0.5880503402898513 3.8804767126766526 0.0  3  29  Si
    2.1539872702898513 3.6132298626766532 0.0  4  30  O
%endblock AtomicCoordinatesAndAtomicSpecies

#############
# Unit Cell
#############
LatticeConstant 1.0 Ang
%block LatticeVectors
    30.00000    0.000000    0.000000
    0.000000    45.00000    0.000000
    0.000000    0.000000    10.00000
%endblock LatticeVectors

%include ../../../../Defaults.fdf
