SystemLabel      5G_Chain

NumberOfAtoms    321

NumberOfSpecies  5
%block ChemicalSpeciesLabel
    1   14  Si
    2    1  H
    3    8  O
    4    7  N
    5   15  P
%endblock ChemicalSpeciesLabel

############################################
# This overrides Defaults.fdf configuration
############################################
MD.TypeOfRun                Verlet # CG, Verlet
MD.Steps                    1000
MD.Quench                   True
SCF.H.Tolerance             0.00009 eV
SCF.DM.Tolerance            0.00009
MD.MaxForceTol              0.09 eV/Ang

SCF.MustConverge            F
MD.LengthTimeStep           1.0 fs

%block SCF.Mixers
    init
    mid
    final
%endblock

%block SCF.Mixer.init
    method pulay
    weight 0.07
    history 10
    restart 12
    restart.save 4
    next mid
    iterations 30
%endblock

%block SCF.Mixer.mid
    method pulay
    weight 0.13
    history 6
    restart 12
    restart.save 3
    next final
    iterations 24
%endblock

%block SCF.Mixer.final
    method pulay
    weight 0.2
    history 6
    restart 20
    iterations 15
%endblock

AtomicCoordinatesFormat NotScaledCartesianAng
%block AtomicCoordinatesAndAtomicSpecies
    -1.748279340    16.872085480     2.932892350    1
    -2.409297950    15.806051850     3.786348980    2
    -1.339551960    18.051344310     3.787490390    2
     0.322949040    15.980041240     2.182524880    1
     1.160442910    16.064102590     3.442561080    2
     0.177939930    14.254115160     1.805926220    3
    -0.187249070    13.742327830     0.195767330    1
     0.805064560    12.696000960    -0.174303760    2
     1.053415750    17.140281250     0.241204470    1
     0.535220810    18.568398210     0.257937980    2
    -0.214141070    15.695654080    -1.147125080    1
    -1.609611390    16.238211810    -1.291869240    2
     0.358013780    15.373261140    -2.498949740    2
    -0.323536930     2.046774880     0.214791720    4
    -1.915514360     1.274103200     0.683214880    1
    -2.054374910    -0.164722190     0.262062300    2
    -3.173030460     2.196490930     1.367894130    4
    -2.606845410     3.895603470     1.603267490    1
    -3.509961140     5.823702020     0.559802040    1
    -4.993708300     6.390130590     0.259152510    3
    -2.063627420     6.897839580     0.318778770    4
    -2.322419510     7.949189120     0.257462530    2
    -0.306258410     6.592009590     0.268379220    1
     0.653064610     7.994307530     0.353039410    4
     0.305515440     9.062430500     0.334566060    2
     1.696247880     7.859536580     0.258554060    2
     0.499699640     5.069723150     0.081742150    4
    -0.612849370     3.814890770     0.423613600    1
    -1.818395510    12.771135990     0.233208150    4
    -3.416090260    13.540863220     0.243599280    1
    -3.213228410    15.030093500     0.257779600    2
    -5.308117650    12.485265210     0.914409550    1
    -6.425731230    12.955563160    -0.000508690    2
    -4.613814420    10.375538430     0.291062970    1
    -5.743028650     9.071935200     0.249949650    4
    -5.445198350     8.030341610     0.172173680    2
    -6.783168450     9.241637950     0.257845190    2
    -2.957511420     9.886076060     0.292550640    4
    -1.632199400    10.971880960     0.290888170    1
    -0.090832680    10.535829330     0.258738720    3
    -1.605481820    -2.504145950    -1.207293270    3
    -0.380550690    -2.017461970    -2.379291070    1
    -0.981638160    -0.949371000    -3.271143040    2
    -0.000354370    -3.195103100    -3.269284610    2
     1.732946380    -1.239920480    -1.495610110    1
     2.676295090    -1.468445720    -2.666900190    2
     1.871401500     0.516451610    -1.203184220    3
     1.400222190     1.254997120     0.285025430    1
     2.230802630     2.504281650     0.430830430    2
     2.300395350    -2.182730740     0.617375510    1
     1.874582460    -3.626273000     0.775208060    2
     1.231593070    -0.510962480     1.891890590    1
    -0.270122520    -0.691362350     1.980132620    2
     1.784099650    -0.258089490     3.269486590    2
    -2.945722730    17.448493190     1.729595580    3
    -4.065788370    18.568213570     2.478507520    5
    -3.480935960    20.029036180     2.500777220    3
    -5.448486510    18.481905000     1.801948500    3
     2.764829740    17.101190630    -0.086498060    3
     4.015413420    -1.900845300     0.861455900    3
     4.520237490    -1.949621480     2.506230550    5
     5.888473190    -2.675817900     2.667324150    3
     3.304687900    -2.501684140     3.354017330    3
     4.730100970    -0.259100140     2.754180140    3
    -2.399744570    -2.932748650    -1.632063740    2
     3.026283110    17.465479700    -0.972304330    2
    -8.027934130    14.592625870     7.009597740    1
    -7.765465330    13.299292100     7.746010090    2
    -8.479249110    15.633667330     8.003875560    2
    -5.881157120    15.253992660     6.233004630    1
    -5.263795770    15.806957780     7.489675300    2
    -4.910594680    13.821066250     5.849477370    3
    -4.836770770    13.219640740     4.221038320    1
    -3.393924130    13.128393320     3.786849850    2
    -6.055973590    16.637907530     4.295809590    1
    -7.320076720    17.448367870     4.303620970    2
    -6.161969590    14.717824230     2.907652420    1
    -7.587497140    14.250070860     2.753597990    2
    -5.622403040    15.115028740     1.549185240    2
     2.654793490     4.176517270     4.090462110    4
     2.020502920     2.517978580     4.308660500    1
     3.035475960     1.465622670     4.045395160    2
     0.354238250     2.244516220     4.619189320    4
    -0.427676800     3.823032170     4.949677250    1
    -2.249136780     4.845533100     3.835890620    1
    -3.750207180     4.492614060     4.303249570    3
    -1.788315660     6.655245630     3.918212870    4
    -2.678914150     7.255540710     4.045196920    2
    -0.304149640     7.603786500     4.025597420    1
    -0.452546580     9.284431050     4.283683550    4
    -1.391337270     9.883421580     4.297354120    2
     0.445218330     9.845542920     4.303226020    2
     1.305848190     6.956576810     3.945710090    4
     1.255746700     5.284927590     4.289913070    1
    -5.451740050    11.434146450     4.294890190    4
    -7.188271170    11.001401130     4.285036140    1
    -8.030566350    12.263654820     4.303220980    2
    -7.922508740     8.960115480     4.917655390    1
    -9.190602740     8.637347460     4.131247180    2
    -6.047080360     7.770601270     4.282809130    1
    -6.049127880     6.044423450     4.318939490    4
    -5.148691460     5.417508720     4.294881680    2
    -6.961747890     5.526735700     4.217338480    2
    -4.474529640     8.484150190     4.285168500    4
    -4.152863030    10.162501750     4.314802010    1
    -2.678307660    10.795074180     4.303210690    3
     5.289056080     0.967052360     1.624961230    1
     4.105585570     1.381478590     0.774869560    2
     6.338468180     0.430281560     0.688720430    2
     6.309074120     2.952167520     2.575090060    1
     7.230948190     3.368523790     1.461021920    2
     5.265687180     4.401075030     2.756908060    3
     4.458302950     4.661126950     4.258783170    1
     4.284493720     6.133964160     4.475328500    2
     7.291673160     2.633325460     4.725602920    1
     7.943175730     1.294049530     4.906307480    2
     5.358090390     3.213158160     5.924201460    1
     4.283719490     2.158106190     6.110524030    2
     5.621857430     3.888147090     7.231364860    2
    -9.284251000    14.336902740     5.774460110    3
   -10.912397300    14.441971150     6.439080240    5
   -11.332300480    15.971049310     6.288167270    3
   -11.869690160    13.472545670     5.679355270    3
    -4.634551500    17.537562200     3.956085520    3
     8.389415020     3.974386380     4.995534050    3
     8.814318210     4.255548570     6.673196050    5
    10.347380700     4.577107960     6.798605240    3
     8.212239640     3.027961400     7.484820780    3
     7.855967340     5.698050270     7.054475310    3
   -11.623638980     9.040787130    11.081276650    1
   -10.711237400     8.119423240    11.876750200    2
   -12.673043350     9.673651920    11.964121260    2
   -10.263345260    10.905312050    10.341978640    1
   -10.174235780    11.574706400    11.704056750    2
    -8.572480170    10.451197110     9.981526660    3
    -8.166143080    10.013873100     8.349096410    1
    -6.962822220    10.797133640     7.917384620    2
   -11.253728190    11.979897740     8.401358720    1
   -12.761379820    11.832655710     8.434744590    2
   -10.140444260    10.371306000     7.051185790    1
   -10.890161170     9.068739770     6.885784510    2
    -9.817417780    10.884690440     5.677686280    2
     3.414819070     7.983120530     8.325260020    4
     3.996916640     6.274537410     8.315316660    1
     5.447871630     6.047454050     8.089871890    2
     2.901633120     4.959698900     8.456794580    4
     1.335287930     5.672716680     8.933383310    1
    -0.849278360     5.404364500     8.271344840    1
    -1.696572490     4.059834710     8.433238790    3
    -1.686298540     7.013945280     8.360916260    4
    -2.768072510     6.909327690     8.433709100    2
    -1.101478850     8.690800780     8.337375170    1
    -2.304151400     9.889271020     8.393337260    4
    -3.405816570     9.751744460     8.428804810    2
    -1.964020130    10.884888890     8.348388920    2
     0.549467020     9.209532710     8.307835210    4
     1.626613150     7.897603170     8.462683590    1
    -7.505272550     8.244827820     8.457352060    4
    -8.545519450     6.794005320     8.478886970    1
    -9.994239760     7.254219520     8.434280040    2
    -7.807461280     4.778587950     9.226154280    1
    -8.478959810     3.800456910     8.262610730    2
    -5.615911490     5.092750520     8.512518580    1
    -4.501960980     3.770582490     8.430216280    4
    -3.424494470     3.889347330     8.354850640    2
    -4.820412830     2.764671630     8.434494960    2
    -4.842092440     6.646917140     8.489974060    4
    -5.691041370     8.135333010     8.460532610    1
    -4.997010640     9.584933620     8.434422350    3
     7.523718170     6.983366570     5.897559150    1
     6.426343270     6.477775490     4.990603220    2
     8.746749370     7.340456110     5.078352470    2
     6.951052360     9.201849950     6.703823560    1
     7.407406710    10.018818100     5.508969330    2
     5.268277110     9.756758310     6.972694980    3
     4.500636370     9.519752630     8.499686970    1
     3.481938550    10.622155000     8.692431520    2
     8.005993910     9.576545070     8.790419260    1
     9.283347010     8.808471570     8.951690540    2
     6.142881160     8.942729000    10.117942750    1
     5.980381190     7.428349020    10.241437080    2
     5.890134430     9.587257660    11.447710190    2
   -12.495568920     8.031775590     9.900491030    3
   -13.884740000     7.127661910    10.254212310    5
   -15.169365630     8.029294180     9.984905590    3
   -13.922718080     5.791850590     9.385721790    3
   -10.797116080    13.650893260     8.084111460    3
     8.211666080    11.313131790     8.956220690    3
     8.356241190    11.725116600    10.643092650    5
     9.282962900    12.955087570    10.843106980    3
     8.656506110    10.451809890    11.528764280    3
     6.476365160    12.324533150    10.889541070    3
   -10.638853630     2.499729230    15.230922880    1
    -9.319591270     2.533625480    15.967335230    2
   -11.742449350     2.236045690    16.225200700    2
   -10.917388850     4.728737010    14.454329770    1
   -11.354749520     5.432740640    15.711000440    2
    -9.337695420     5.435729360    14.070802510    3
    -8.732587520     5.403995280    12.442363460    1
    -8.392178670     6.809076890    12.008174990    2
   -12.310635510     4.796890690    12.517134730    1
   -13.328292340     3.692727090    12.524946110    2
   -10.438128600     4.359086040    11.128977560    1
   -10.225021720     2.873990940    10.974923130    2
   -10.735603930     4.959429200     9.770510380    2
     1.474047060    11.211423930    12.311787250    4
     2.997245420    10.298767440    12.529985640    1
     4.209861900    11.115581070    12.266720300    2
     2.977209450     8.610330840    12.840514460    4
     1.350078700     7.879383210    12.822369920    1
    -0.036363470     6.498168760    12.057215760    1
     0.050535800     4.958619250    12.524574710    3
    -1.738561650     7.266242260    12.139538010    4
    -2.484387710     6.493414110    12.266522060    2
    -2.414969330     8.892572860    12.246922560    1
    -4.095849970     9.038271260    12.505008690    4
    -4.848759780     8.217756530    12.518679260    2
    -4.492542050    10.019833160    12.524551160    2
    -1.498019020    10.365724420    12.167035230    4
     0.139534060    10.026105240    12.511238210    1
    -7.081007200     4.488320940    12.516215330    4
    -6.956381720     2.703026190    12.506361280    1
    -8.345721960     2.092715420    12.524546120    2
    -5.073606800     1.625477800    12.938980530    1
    -4.975944560     0.320600920    12.152572320    2
    -3.576499260     3.265857240    12.504134270    1
    -1.876901510     2.964093190    12.540264630    4
    -1.103151880     3.741987360    12.516206820    2
    -1.525553400     1.975442400    12.438663620    2
    -4.006137200     4.938423850    12.506493640    4
    -5.603134010     5.546646310    12.536127150    1
    -5.970042390     7.108644920    12.524535830    3
     5.092187890    13.248348420     9.846286370    1
     4.478550220    12.154821850     8.996194700    2
     5.803032430    14.188608320     8.910045570    2
     3.314355360    14.597581730    10.796415200    1
     3.064406230    15.577749970     9.682347060    2
     1.706277770    13.821646330    10.978233200    3
     1.309975820    13.071685620    12.480108310    1
    -0.170667340    13.156272440    12.696653640    2
     3.798980030    15.509886540    12.946928060    1
     5.231041580    15.918928490    13.127632620    2
     2.892193160    13.706366130    14.145526600    1
     3.744653970    12.465109480    14.331849170    2
     2.273261500    14.083336550    15.452690000    2
   -10.605172640     1.218092780    13.995785250    3
   -10.991369460    -0.367073380    14.660405380    5
   -12.570132910    -0.515075650    14.509492410    3
   -10.202903900    -1.478161780    13.900680410    3
   -13.059002330     6.371088010    11.983131290    3
     2.668913710    16.823824020    13.216859190    3
     2.465806670    17.291095270    14.894521190    5
     2.415346000    18.856705300    15.019930380    3
     3.570194180    16.484995360    15.706145920    3
     0.878803930    16.597791700    15.275800450    3
    -5.795747390    -2.005415470    19.302601790    1
    -4.729944210    -1.266868480    20.098075340    2
    -6.601224700    -2.928981210    20.185446400    2
    -7.395733460    -0.342016310    18.563303780    1
    -8.039484510    -0.138021490    19.925381890    2
    -6.654901900     1.244304510    18.202851800    3
    -6.153662130     1.568527910    16.570421550    1
    -6.716068710     2.889579390    16.138709760    2
    -8.625971970    -1.130753250    16.622683860    1
    -8.742767830    -2.641068580    16.656069730    2
    -6.848498630    -0.313711630    15.272510930    1
    -5.695908280    -1.278226910    15.107109650    2
    -7.297990640     0.093555620    13.899011420    2
    -2.142748280    12.620912740    16.546585160    4
    -0.359042200    12.897474590    16.536641800    1
     0.116546940    14.286953700    16.311197030    2
     0.745626970    11.590511580    16.678119720    4
    -0.228551450    10.171776930    17.154708450    1
    -0.343622100     7.973800240    16.492669980    1
     0.833350180     6.905903270    16.654563930    3
    -2.074096760     7.428997050    16.582241400    4
    -2.158916630     6.345491000    16.655034240    2
    -3.623924180     8.296114920    16.558700310    1
    -5.013028870     7.319825840    16.614662400    4
    -5.068893790     6.211016200    16.650129950    2
    -5.934457890     7.827676980    16.569714060    2
    -3.848091670    10.012056060    16.529160350    4
    -2.369048820    10.845023750    16.684008730    1
    -4.296733660     1.912166840    16.678677200    4
    -3.048589390     0.635790940    16.700212110    1
    -3.753379550    -0.711004690    16.655605180    2
    -0.935628290     1.012662800    17.447479420    1
    -0.088961750     0.181515170    16.483935870    2
    -0.864459390     3.225471780    16.733843720    1
     0.631057410     4.092906810    16.651541420    4
     0.701196970     5.174627480    16.576175780    2
     1.566387640     3.604618370    16.655820100    2
    -2.260642460     4.257412980    16.711299200    4
    -3.873864390     3.679822200    16.681857750    1
    -5.180925130     4.615029550    16.655747490    3
    -3.186444540    -4.989502390    20.361097940    2
    -0.444679990    16.493782970    14.118884290    1
    -0.137327130    15.325284690    13.211928360    2
    -0.583967400    17.760241530    13.299677610    2
    -2.728902000    16.315052840    14.925148700    1
    -3.454213470    16.906339170    13.730294470    2
    -3.567590910    14.754201550    15.194020120    3
    -3.467485290    13.957067400    16.721012110    1
    -4.730034720    13.145276050    16.913756660    2
    -2.914715980    17.419032580    17.011744400    1
    -1.936501210    18.543605260    17.173015680    2
    -2.614055130    15.474163700    18.339267890    1
    -1.150899810    15.051163140    18.462762220    2
    -3.292680970    15.337177980    19.669035330    2
    -4.953474050    -3.039311850    18.121816170    3
    -3.964504830    -4.391980730    20.177654130    3
    -4.304322910    -4.564375990    18.475537450    5
    -5.415330260    -5.672918470    18.206230730    3
    -2.995400390    -4.833738300    17.607046930    3
   -10.192291450    -0.390912780    16.305436600    3
    -4.589205450    17.923135250    17.177545830    3
    -4.969826080    18.137054350    18.864417790    5
    -6.020187490    19.263279290    19.064432120    3
    -3.663723300    18.211650180    19.750089420    3
    -5.690094420    16.664982510    19.236104730    3
    -6.588797630    16.641938420    18.804007090    2
%endblock AtomicCoordinatesAndAtomicSpecies

%include ../../../Defaults.fdf
