# mpirun -np 4 siesta-4.1.5 < AT.fdf > AT.out &

SystemLabel      AT

NumberOfAtoms    30

NumberOfSpecies  4
%block ChemicalSpeciesLabel
    1    1  H
    2    7  N
    3   14  Si
    4    8  O
%endblock ChemicalSpeciesLabel

############################################
# This overrides Defaults.fdf configuration
############################################
MD.TypeOfRun                Verlet # CG, Verlet
MD.Steps                    0
MaxSCFIterations            300

AtomicCoordinatesFormat NotScaledCartesianAng
%block AtomicCoordinatesAndAtomicSpecies
    2.28494382 -5.19529124 0.0  1  1  H
    1.37433094 -4.6647107 0.0  2  2  N
    -0.21830245 -5.49458215 0.0  3  3  Si
    -0.17484108 -6.98516892 0.0  1  4  H
    -1.66171682 -4.58600741 0.0  2  5  N
    -1.09026419 -2.87456374 0.0  3  6  Si
    -1.53038332 -0.70765692 0.0  3  7  Si
    -3.14415959 -0.09186471 0.0  2  8  N
    -3.40268075 0.95848335 0.0  1  9  H
    -3.95073599 -0.76720972 0.0  1  10  H
    -0.17836637 0.41349951 0.0  2  11  N
    1.49520211 -0.0473996 0.0  3  12  Si
    2.45603905 1.10727302 0.0  1  13  H
    2.30451743 -1.58574382 0.0  2  14  N
    1.10725559 -2.84610319 0.0  3  15  Si
    0.38803226374135114 8.853701462207999 0.0  1  16  H
    -0.4206784162586489 8.161495582207998 0.0  2  17  N
    -2.077268256258649 8.874615682207999 0.0  3  18  Si
    -1.9804030862586488 10.385340892207997 0.0  1  19  H
    -3.8034246062586488 7.531567552207998 0.0  3  20  Si
    -6.157878856258649 7.523580622207999 0.0  3  21  Si
    -6.720296976258649 8.258070272207998 -1.20183078  1  22  H
    -6.457692606258649 6.044489492207998 -0.08618332  1  23  H
    -6.720409436258649 8.088413082207998 1.28814761  1  24  H
    -2.874033966258649 5.460996322207999 0.0  3  25  Si
    -3.823502326258649 4.172460192207998 0.0  4  26  O
    -1.0830890962586488 5.287260852207998 0.0  2  27  N
    -0.7520977362586488 4.254903872207999 0.0  1  28  H
    0.2253691237413511 6.481807272207998 0.0  3  29  Si
    1.791306053741351 6.214560422207999 0.0  4  30  O
%endblock AtomicCoordinatesAndAtomicSpecies

%include ../../../../Defaults.fdf
