# mpirun -np 4 siesta-4.1.5 < AT.fdf > AT.out &

SystemLabel      AT

NumberOfAtoms    30

NumberOfSpecies  4
%block ChemicalSpeciesLabel
    1    1  H
    2    7  N
    3   14  Si
    4    8  O
%endblock ChemicalSpeciesLabel

############################################
# This overrides Defaults.fdf configuration
############################################
MD.TypeOfRun                Verlet # CG, Verlet
MD.Steps                    0
MaxSCFIterations            200
SCF.MustConverge            F

AtomicCoordinatesFormat NotScaledCartesianAng
%block AtomicCoordinatesAndAtomicSpecies
    2.28494382 -5.19529124 0.0  1  1  H
    1.37433094 -4.6647107 0.0  2  2  N
    -0.21830245 -5.49458215 0.0  3  3  Si
    -0.17484108 -6.98516892 0.0  1  4  H
    -1.66171682 -4.58600741 0.0  2  5  N
    -1.09026419 -2.87456374 0.0  3  6  Si
    -1.53038332 -0.70765692 0.0  3  7  Si
    -3.14415959 -0.09186471 0.0  2  8  N
    -3.40268075 0.95848335 0.0  1  9  H
    -3.95073599 -0.76720972 0.0  1  10  H
    -0.17836637 0.41349951 0.0  2  11  N
    1.49520211 -0.0473996 0.0  3  12  Si
    2.45603905 1.10727302 0.0  1  13  H
    2.30451743 -1.58574382 0.0  2  14  N
    1.10725559 -2.84610319 0.0  3  15  Si
    0.3809509403327347 8.904492245254508 0.0  1  16  H
    -0.4277597396672653 8.212286365254506 0.0  2  17  N
    -2.0843495796672653 8.925406465254508 0.0  3  18  Si
    -1.9874844096672653 10.436131675254506 0.0  1  19  H
    -3.810505929667265 7.582358335254507 0.0  3  20  Si
    -6.164960179667266 7.5743714052545075 0.0  3  21  Si
    -6.727378299667266 8.308861055254507 -1.20183078  1  22  H
    -6.464773929667266 6.095280275254507 -0.08618332  1  23  H
    -6.7274907596672655 8.139203865254506 1.28814761  1  24  H
    -2.8811152896672656 5.511787105254507 0.0  3  25  Si
    -3.8305836496672656 4.223250975254507 0.0  4  26  O
    -1.0901704196672655 5.338051635254507 0.0  2  27  N
    -0.7591790596672653 4.3056946552545075 0.0  1  28  H
    0.21828780033273465 6.532598055254507 0.0  3  29  Si
    1.7842247303327345 6.2653512052545075 0.0  4  30  O
%endblock AtomicCoordinatesAndAtomicSpecies

#############
# Unit Cell
#############
LatticeConstant 1.0 Ang
%block LatticeVectors
    30.00000    0.000000    0.000000
    0.000000    45.00000    0.000000
    0.000000    0.000000    10.00000
%endblock LatticeVectors

%include ../../../../Defaults.fdf
