SystemLabel      GC

NumberOfAtoms    29

NumberOfSpecies  4
%block ChemicalSpeciesLabel
    1    8  O
    2    7  N
    3   14  Si
    4    1  H
%endblock ChemicalSpeciesLabel

# Single point calculation
MD.TypeOfRun                CG
MD.Steps                    0
SCF.MustConverge            F # In case it does not. There can be 2 very close atoms

AtomicCoordinatesFormat NotScaledCartesianAng
%block AtomicCoordinatesAndAtomicSpecies
0.854927710    3.902811360    0.000000000       1
-3.151486600   0.823854130    0.000000000       2
1.928518680    1.174000900    0.000000000       2
0.979899500    -1.830275890   0.000000000       2
-2.159258930   -2.028004800   0.000000000       2
3.785319770    -1.112700660   0.000000000       2
-1.345933810   0.976250250    0.000000000       3
-0.599439880   -1.096077170   0.000000000       3
0.453182890    2.350510230    0.000000000       3
2.133302030    -0.576510800   0.000000000       3
-3.516065660   -0.842056510   0.000000000       3
2.824527830    1.754723110    0.000000000       4
-4.877551690   -1.469214660   0.000000000       4
3.994952020    -2.143204000   0.000000000       4
4.620903610    -0.483666060   0.000000000       4
-2.279085180   -3.081514090   0.000000000       4
4.518216168    4.799049985    -0.000000000      3
6.387175658    6.058693615    -0.000000000      3
5.928243278    2.057311765    -0.000000000      3
7.995835998    4.563902985    -0.000000000      3
4.577746118    3.114097525    -0.000000000      2
2.888216968    5.429110215    -0.000000000      2
7.572132148    2.848402175    -0.000000000      2
6.667539358    7.528916135    -0.000000000      4
9.491247378    4.782755525    -0.000000000      4
2.643757978    6.447576165    -0.000000000      4
2.061475788    4.772262085    -0.000000000      4
5.987519038    0.474869735    -0.000000000      1
8.343787738    2.121434815    -0.000000000      4
%endblock AtomicCoordinatesAndAtomicSpecies

%include ../../../Defaults.fdf
