# mpirun -np 4 siesta-4.1.5 < GC.fdf > GC.out &

SystemLabel      GC

NumberOfAtoms    29

NumberOfSpecies  4
%block ChemicalSpeciesLabel
    1    1  H
    2    7  N
    3   14  Si
    4    8  O
%endblock ChemicalSpeciesLabel

############################################
# This overrides Defaults.fdf configuration
############################################
MD.TypeOfRun                CG # CG, Verlet
MD.Steps                    0
MaxSCFIterations            600

AtomicCoordinatesFormat NotScaledCartesianAng
%block AtomicCoordinatesAndAtomicSpecies
    1.7632482988351752 2.5127489376781016 -0.0  1  1  H
    1.0567615688351752 1.7227127576781018 -0.0  2  2  N
    -0.6735253411648248 2.164076667678102 0.0  3  3  Si
    -0.8293050211648247 3.654068927678102 0.0  1  4  H
    -2.196846961164825 0.6051691476781016 -0.0  3  5  Si
    -3.680034591164825 0.8479995076781017 -0.0  1  6  H
    -0.9984561011648247 -1.3081070123218983 -0.0  3  7  Si
    -1.7644815611648248 -2.8408237523218984 -0.0  2  8  N
    -1.1742350111648248 -3.7980367823218986 0.0  1  9  H
    -2.8161038811648247 -2.9212839823218983 -0.0  1  10  H
    0.7177439588351753 -1.2529327023218984 0.0  2  11  N
    1.7927665788351752 0.07740613767810167 -0.0  3  12  Si
    3.401439898835175 0.058595877678101704 -0.0  4  13  O
    5.6164483 -7.44953905 0.0  1  14  H
    4.58206954 -7.2320376 0.0  2  15  N
    3.29666389 -8.492636 0.0  3  16  Si
    3.80117524 -9.90371886 -0.0  1  17  H
    1.65934232 -8.01362137 0.0  2  18  N
    1.68097912 -6.20463398 -0.0  3  19  Si
    0.54543521 -4.28636135 0.0  3  20  Si
    -1.03431493 -3.94450034 0.0  4  21  O
    1.73226934 -2.87719605 0.0  2  22  N
    1.20957366 -1.92961761 -0.0  1  23  H
    3.50853448 -2.77677601 0.0  3  24  Si
    4.13684451 -1.17938608 0.0  2  25  N
    3.54296161 -0.26248101 0.0  1  26  H
    5.18364407 -1.05231197 -0.0  1  27  H
    4.63288658 -4.07521596 -0.0  2  28  N
    3.79410501 -5.58634043 0.0  3  29  Si
%endblock AtomicCoordinatesAndAtomicSpecies

%include ../../../../Defaults.fdf