SystemLabel      baseGGG

NumberOfAtoms    195

NumberOfSpecies  5
%block ChemicalSpeciesLabel
    1   14  Si
    2    1  H
    3    8  O
    4    7  N
    5   15  P
%endblock ChemicalSpeciesLabel

############################################
# This overrides Defaults.fdf configuration
############################################
MD.TypeOfRun                Verlet # CG, Verlet
MD.Steps                    1000
MD.Quench                   True
SCF.H.Tolerance             0.00006 eV
SCF.DM.Tolerance            0.00008
MD.MaxForceTol              0.02 eV/Ang
SCF.Mixer.Kick              10
MaxSCFIterations            90
SCF.Mixer.Weight            0.13
SCF.MustConverge            F

AtomicCoordinatesFormat NotScaledCartesianAng
%block AtomicCoordinatesAndAtomicSpecies
    -1.847418320    17.002094740     2.968643470    1
    -2.610148400    15.955967000     3.774281210    2
    -1.307570490    18.108351270     3.862039630    2
     0.235080580    15.976164700     2.225993320    1
     1.044163040    16.039914300     3.511314430    2
     0.172836420    14.233356210     1.842298150    3
    -0.198036910    13.732200100     0.225510500    1
     0.784356810    12.677844730    -0.176341370    2
     1.057311980    17.114747460     0.280066910    1
     0.523170040    18.539717580     0.263452210    2
    -0.237572080    15.687537400    -1.110363500    1
    -1.653599520    16.212800110    -1.230290910    2
     0.347859250    15.350329910    -2.460005030    2
    -0.226923100     2.013360220     0.133151820    4
    -1.803292690     1.128093670     0.209563200    1
    -1.741856600    -0.344022520    -0.087968270    2
    -3.267244200     1.990108940     0.482877620    4
    -2.816197990     3.646467570     0.995684990    1
    -3.480809930     5.771221680     0.336549790    1
    -4.959826270     6.381473260     0.263015320    3
    -2.046153060     6.886701430     0.310901430    4
    -2.349965630     7.934146710     0.264152850    2
    -0.285051140     6.592025520     0.278144780    1
     0.693605330     7.985449570     0.261118210    4
     0.347571180     9.054601560     0.263664680    2
     1.740744940     7.847070610     0.263020790    2
     0.488566620     5.048546650     0.226775580    4
    -0.605050700     3.749951160     0.405114820    1
    -1.833913190    12.781383760     0.267212780    4
    -3.437249910    13.579968660     0.274098870    1
    -3.221674130    15.087399490     0.263159550    2
    -5.310976220    12.515463070     0.994003320    1
    -6.439739400    13.021101620     0.088366010    2
    -4.633232740    10.394367980     0.322736910    1
    -5.750830870     9.072708080     0.225403210    4
    -5.479112860     8.021429760     0.175527990    2
    -6.790893210     9.229226420     0.263395530    2
    -2.970351610     9.897999340     0.283003630    4
    -1.634434240    10.976310150     0.277358150    1
    -0.089748540    10.520172510     0.263539880    3
    -1.565720800    -2.499919510    -1.231849120    3
    -0.379683580    -1.982511400    -2.437297220    1
    -1.043789220    -0.948413580    -3.335980890    2
    -0.003603170    -3.169527030    -3.311053900    2
     1.719728530    -1.237145640    -1.513767970    1
     2.697584110    -1.551684500    -2.633295850    2
     1.912589860     0.514457390    -1.227984680    3
     1.480980460     1.207203110     0.290257140    1
     2.351764990     2.416311530     0.440649860    2
     2.184110990    -2.222019780     0.604067850    1
     1.651635660    -3.622922730     0.703791620    2
     1.261034100    -0.493119430     1.945198890    1
    -0.259766400    -0.603730440     2.107052640    2
     1.913148020    -0.086802530     3.246818180    2
    -2.957253620    17.675964090     1.757454900    3
    -4.088671610    18.886672760     2.086752030    5
    -3.394712080    20.266118190     1.844204120    3
    -5.394688920    18.712080770     1.232290070    3
     2.781596560    17.074915130    -0.087823060    3
     3.916160140    -2.156941570     0.793461630    3
     4.360082930    -2.252153180     2.480997490    5
     5.744490090    -2.932945750     2.632977450    3
     3.135090760    -2.758127130     3.332781260    3
     4.525303430    -0.501787190     2.803060190    3
    -2.350305110    -2.932185430    -1.667211650    2
     2.972602200    17.440046510    -0.992086340    2
    -8.227405230    14.620770480     6.981967470    1
    -8.139252420    13.329116690     7.787605210    2
    -8.524945790    15.815219650     7.875363630    2
    -5.972663400    15.173466970     6.239317320    1
    -5.393847740    15.742370170     7.524638430    2
    -4.900089490    13.798388430     5.855622150    3
    -4.862058010    13.176087800     4.238834500    1
    -3.431774190    12.999875240     3.836982630    2
    -6.074664500    16.574192120     4.293390910    1
    -7.399794100    17.322442740     4.276776210    2
    -6.149210300    14.648550350     2.902960500    1
    -7.571582610    14.140720040     2.783033090    2
    -5.483991080    14.766542430     1.553318970    2
     2.648538960     4.180367940     4.146475820    4
     2.010008160     2.488943580     4.222887200    1
     3.003328990     1.400727510     3.925355730    2
     0.334463510     2.208275700     4.496201620    4
    -0.384701850     3.767046940     5.009008990    1
    -2.259589750     4.967498690     4.349873790    1
    -3.784844150     4.484285150     4.276339320    3
    -1.877595390     6.744185420     4.324225430    4
    -2.783614170     7.351288100     4.277476850    2
    -0.339099030     7.650465070     4.291468780    1
    -0.485080390     9.346958070     4.274442210    4
    -1.437395580     9.943549550     4.276988680    2
     0.406023370     9.914042010     4.276344790    2
     1.245655650     6.965363570     4.240099580    4
     1.242617270     5.267618050     4.418438820    1
    -5.504038980    11.396199220     4.280536780    4
    -7.245586650    10.977345770     4.287422870    1
    -8.049403880    12.270674220     4.276483550    2
    -7.996693270     8.957479120     5.007327320    1
    -9.186394230     8.619265730     4.101690010    2
    -6.114098000     7.768271120     4.336060910    1
    -6.120681230     6.037442670     4.238727210    4
    -5.236784480     5.406773730     4.188851990    2
    -7.018023250     5.488803490     4.276719530    2
    -4.521197540     8.456910070     4.296327630    4
    -4.190950290    10.141655210     4.290682150    1
    -2.714452770    10.785138330     4.276863880    3
     5.100014410     1.021160150     1.576026780    1
     3.926574710     1.386446160     0.677343110    2
     6.151107660     0.353593250     0.702270100    2
     6.229145520     2.941619540     2.499556030    1
     7.180408030     3.329222240     1.380028150    2
     5.250977140     4.407394180     2.785339320    3
     4.475056790     4.660635010     4.303581140    1
     4.364916530     6.146595310     4.453973860    2
     7.217948010     2.485661470     4.617391850    1
     7.710531300     1.070239000     4.717115620    2
     5.399514370     3.216733590     5.958522890    1
     4.305612980     2.154448920     6.120376640    2
     5.637887140     3.947161140     7.260142180    2
    -9.510743270    14.423595970     5.770778900    3
   -11.155688260    14.623791160     6.100076030    5
   -11.510774850    16.126576250     5.857528120    3
   -12.043930000    13.650554190     5.245614070    3
    -4.637321530    17.829607640     3.939980460    3
     8.502943170     3.648854000     4.806785630    3
     8.904208600     3.861265750     6.494321490    5
    10.402331040     4.229628150     6.646301450    3
     8.291043940     2.686257420     7.346105260    3
     7.943870770     5.303039920     6.887275080    3
   -11.646142830     8.963356210    11.137780240    1
   -10.748354810     8.030555540    11.943417980    2
   -12.641849240     9.687101970    12.031176400    2
   -10.274176830    10.836066390    10.395130090    1
   -10.196462240    11.643927080    11.680451200    2
    -8.568654100    10.472132350    10.011434920    3
    -8.139513160    10.019868570     8.394647270    1
    -6.930584940    10.804250630     7.992795400    2
   -11.252682980    11.843519070     8.449203680    1
   -12.748757370    11.564935410     8.432588980    2
   -10.072009700    10.320474790     7.058773270    1
   -10.835183070     9.017170900     6.938845860    2
    -9.638266070    10.838456630     5.709131740    2
     3.396275180     7.956466040     8.302288590    4
     3.994358830     6.250320120     8.378699970    1
     5.454778540     6.055192560     8.081168500    2
     2.891227000     4.958296700     8.652014390    4
     1.338355530     5.690114160     9.164821760    1
    -0.869527440     5.404558850     8.505686560    1
    -1.727336420     4.053981170     8.432152090    3
    -1.718935000     7.011121090     8.480038200    4
    -2.803223730     6.893811080     8.433289620    2
    -1.122923740     8.694297980     8.447281550    1
    -2.325236630     9.900052000     8.430254980    4
    -3.438234000     9.744931180     8.432801450    2
    -2.007126070    10.907253960     8.432157560    2
     0.531443540     9.188140450     8.395912350    4
     1.620405790     7.885638900     8.574251590    1
    -7.487208790     8.243737400     8.436349550    4
    -8.552077890     6.803431780     8.443235640    1
    -9.999173120     7.277495100     8.432296320    2
    -7.829113690     4.773322130     9.163140090    1
    -8.523078120     3.749510610     8.257502780    2
    -5.622553880     5.072444860     8.491873680    1
    -4.515041840     3.742321730     8.394539980    4
    -3.432551470     3.827359170     8.344664760    2
    -4.849787250     2.745239400     8.432532300    2
    -4.844969920     6.623869580     8.452140400    4
    -5.674919150     8.126738070     8.446494920    1
    -4.957479410     9.568749060     8.432676650    3
   -13.578574150     5.878211500    12.119349380    2
     7.304913950     7.112150510     5.731839550    1
     6.171205670     6.637703320     4.833155880    2
     8.539201820     7.276394310     4.858082870    2
     6.935431060     9.309099230     6.655368800    1
     7.414994210    10.217479890     5.535840920    2
     5.243928830     9.803193240     6.941152090    3
     4.486759290     9.498434990     8.459393910    1
     3.447230090    10.565949820     8.609786630    2
     7.985981920     9.595405080     8.773204620    1
     9.273138630     8.827755000     8.872928390    2
     6.123056830     8.986572200    10.114335660    1
     5.967903170     7.469668680    10.276189410    2
     5.836151190     9.699335230    11.415954950    2
   -12.502495460     7.987397990     9.926591670    3
   -13.666064380     6.860810990    11.942173270    3
   -13.891279420     7.083406140    10.255888800    5
   -15.129263170     8.006361050    10.013340890    3
   -13.946127400     5.766912580     9.401426840    3
   -10.980202880    13.721233140     8.110021290    3
     8.222659570    11.312441230     8.962598400    3
     8.393511080    11.733086510    10.650134260    5
     9.304360670    12.978243020    10.802114220    3
     8.679080490    10.438843270    11.501918030    3
     6.797158470    12.184614580    10.977017510    3
     6.596275810    13.014000070    10.452863670    2
%endblock AtomicCoordinatesAndAtomicSpecies

%include ../../Defaults.fdf
