# mpirun -np 8 siesta-5 < AT.fdf > AT.out

SystemLabel      AT

NumberOfAtoms    30

NumberOfSpecies  4
%block ChemicalSpeciesLabel
    1    1  H   ../../../Pseudos/PBE/H/H.psml
    2    7  N   ../../../Pseudos/PBE/N/N.psml
    3    6  C   ../../../Pseudos/PBE/C/C.psml
    4    8  O   ../../../Pseudos/PBE/O/O.psml
%endblock ChemicalSpeciesLabel

############################################
# This overrides Defaults.fdf configuration
############################################
MD.Steps                    1000

%block Geometry.Constraints
    atom [6]
%endblock

AtomicCoordinatesFormat NotScaledCartesianAng
%block AtomicCoordinatesAndAtomicSpecies
     6.958000000    -5.037000000     2.040000000    1
     5.785000000    -4.219000000     1.620000000    2
     4.470000000    -4.580000000     1.610000000    3
     4.172000000    -5.550000000     1.980000000    1
     3.676000000    -3.650000000     1.190000000    2
     4.530000000    -2.594000000     0.910000000    3
     4.301000000    -1.290000000     0.430000000    3
     3.084000000    -0.815000000     0.130000000    2
     2.981000000     0.130000000    -0.211000000    1
     2.270000000    -1.402000000     0.245000000    1
     5.377000000    -0.499000000     0.260000000    2
     6.579000000    -0.971000000     0.560000000    3
     7.448000000    -0.343000000     0.431000000    1
     6.922000000    -2.156000000     1.020000000    2
     5.825000000    -2.930000000     1.170000000    3
     6.958000000     5.037000000    -2.040000000    1
     5.785000000     4.219000000    -1.620000000    2
     4.517000000     4.743000000    -1.670000000    3
     4.357000000     5.742000000    -2.047000000    1
     3.456000000     4.018000000    -1.300000000    3
     2.049000000     4.539000000    -1.330000000    3
     1.788000000     4.823000000    -2.349000000    1 #
     1.366000000     3.763000000    -0.983000000    1 #
     1.969000000     5.410000000    -0.679000000    1 #
     3.606000000     2.659000000    -0.830000000    3
     2.687000000     1.916000000    -0.470000000    4
     4.912000000     2.218000000    -0.820000000    2
     5.081000000     1.199000000    -0.471000000    1
     6.031000000     2.941000000    -1.200000000    3
     7.148000000     2.461000000    -1.150000000    4
%endblock AtomicCoordinatesAndAtomicSpecies

#############
# Unit Cell
#############
LatticeConstant 1.0 Ang
%block LatticeVectors
    13.410444    0.000000    0.000000
    0.000000   19.141444    0.000000
    0.000000    0.000000   11.548144
%endblock LatticeVectors

%include ../../../Defaults.fdf