SystemLabel      AT

NumberOfAtoms    30

NumberOfSpecies  4
%block ChemicalSpeciesLabel
    1    1  H
    2    7  N
    3   14  Si
    4    8  O
%endblock ChemicalSpeciesLabel

# Single point calculation
MD.TypeOfRun                CG
MD.Steps                    0
SCF.MustConverge            F # In case it does not. There can be 2 very close atoms

AtomicCoordinatesFormat NotScaledCartesianAng
%block AtomicCoordinatesAndAtomicSpecies
2.582377650    -5.776830440   0.000000000       1
1.654759240    -5.269361980   0.000000000       2
0.063128840    -6.101704590   0.000000000       3
0.119223240    -7.596849500   0.000000000       1
-1.376892050   -5.182603740   0.000000000       2
-0.824371900   -3.460866440   0.000000000       3
-1.170571480   -1.270002100   0.000000000       3
-2.706933680   -0.417515780   0.000000000       2
-2.754569660   0.634858620    0.000000000       1
-3.637675640   -0.909967860   0.000000000       1
0.218091790    -0.234193970   0.000000000       2
1.872004100    -0.697162300   0.000000000       3
2.828001130    0.461464770    0.000000000       1
2.648150080    -2.255024470   0.000000000       2
1.391921380    -3.454727220   0.000000000       3
1.898038779    4.824499192    0.000000000       2
0.570667259    6.034703492    0.000000000       3
1.210668529    7.396021732    0.000000000       1
-1.515078681   5.364172142    0.000000000       3
-3.544641281   6.494288332    0.000000000       3
-3.390405511   7.654518542    0.940305280       1
-4.530576001   5.472367712    0.512613700       1
-3.960856241   6.970514182    -1.366678340      1
-1.448583261   3.090195522    0.000000000       3
-2.487631991   1.897136022    0.000000000       4
0.208408319    2.456220332    0.000000000       2
0.190390949    1.393775502    0.000000000       1
1.832011389    3.053290542    0.000000000       3
3.027027559    2.038865342    0.000000000       4
2.898076149    5.170006292    0.000000000       1
%endblock AtomicCoordinatesAndAtomicSpecies

%include ../../../Defaults.fdf
