# mpirun -np 4 siesta-4.1.5 < GC.fdf > GC.out &

SystemLabel      GC

NumberOfAtoms    29

NumberOfSpecies  4
%block ChemicalSpeciesLabel
    1    1  H
    2    7  N
    3   14  Si
    4    8  O
%endblock ChemicalSpeciesLabel

############################################
# This overrides Defaults.fdf configuration
############################################
MD.TypeOfRun                CG # CG, Verlet
MD.Steps                    0
MaxSCFIterations            600

AtomicCoordinatesFormat NotScaledCartesianAng
%block AtomicCoordinatesAndAtomicSpecies
    1.6801929416515695 2.6363602350532775 -0.0  1  1  H
    0.9737062116515696 1.8463240550532776 -0.0  2  2  N
    -0.7565806983484304 2.2876879650532773 0.0  3  3  Si
    -0.9123603783484304 3.7776802250532775 0.0  1  4  H
    -2.2799023183484306 0.7287804450532772 -0.0  3  5  Si
    -3.763089948348431 0.9716108050532773 -0.0  1  6  H
    -1.0815114583484304 -1.1844957149467228 -0.0  3  7  Si
    -1.8475369183484305 -2.717212454946723 -0.0  2  8  N
    -1.2572903683484304 -3.6744254849467226 0.0  1  9  H
    -2.8991592383484304 -2.797672684946723 -0.0  1  10  H
    0.6346886016515696 -1.1293214049467228 0.0  2  11  N
    1.7097112216515695 0.2010174350532773 -0.0  3  12  Si
    3.3183845416515694 0.18220717505327733 -0.0  4  13  O
    5.6164483 -7.44953905 0.0  1  14  H
    4.58206954 -7.2320376 0.0  2  15  N
    3.29666389 -8.492636 0.0  3  16  Si
    3.80117524 -9.90371886 -0.0  1  17  H
    1.65934232 -8.01362137 0.0  2  18  N
    1.68097912 -6.20463398 -0.0  3  19  Si
    0.54543521 -4.28636135 0.0  3  20  Si
    -1.03431493 -3.94450034 0.0  4  21  O
    1.73226934 -2.87719605 0.0  2  22  N
    1.20957366 -1.92961761 -0.0  1  23  H
    3.50853448 -2.77677601 0.0  3  24  Si
    4.13684451 -1.17938608 0.0  2  25  N
    3.54296161 -0.26248101 0.0  1  26  H
    5.18364407 -1.05231197 -0.0  1  27  H
    4.63288658 -4.07521596 -0.0  2  28  N
    3.79410501 -5.58634043 0.0  3  29  Si
%endblock AtomicCoordinatesAndAtomicSpecies

%include ../../../../Defaults.fdf