# mpirun -np 4 siesta-4.1.5 < AT.fdf > AT.out &

SystemLabel      AT

NumberOfAtoms    30

NumberOfSpecies  4
%block ChemicalSpeciesLabel
    1    1  H
    2    7  N
    3   14  Si
    4    8  O
%endblock ChemicalSpeciesLabel

############################################
# This overrides Defaults.fdf configuration
############################################
MD.TypeOfRun                Verlet # CG, Verlet
MD.Steps                    0
MaxSCFIterations            300

AtomicCoordinatesFormat NotScaledCartesianAng
%block AtomicCoordinatesAndAtomicSpecies
    2.28494382 -5.19529124 0.0  1  1  H
    1.37433094 -4.6647107 0.0  2  2  N
    -0.21830245 -5.49458215 0.0  3  3  Si
    -0.17484108 -6.98516892 0.0  1  4  H
    -1.66171682 -4.58600741 0.0  2  5  N
    -1.09026419 -2.87456374 0.0  3  6  Si
    -1.53038332 -0.70765692 0.0  3  7  Si
    -3.14415959 -0.09186471 0.0  2  8  N
    -3.40268075 0.95848335 0.0  1  9  H
    -3.95073599 -0.76720972 0.0  1  10  H
    -0.17836637 0.41349951 0.0  2  11  N
    1.49520211 -0.0473996 0.0  3  12  Si
    2.45603905 1.10727302 0.0  1  13  H
    2.30451743 -1.58574382 0.0  2  14  N
    1.10725559 -2.84610319 0.0  3  15  Si
    0.365927459926384 9.012248139159022 0.0  1  16  H
    -0.44278322007361604 8.320042259159022 0.0  2  17  N
    -2.099373060073616 9.033162359159022 0.0  3  18  Si
    -2.0025078900736157 10.543887569159022 0.0  1  19  H
    -3.825529410073616 7.690114229159021 0.0  3  20  Si
    -6.179983660073616 7.6821272991590215 0.0  3  21  Si
    -6.7424017800736165 8.416616949159021 -1.20183078  1  22  H
    -6.479797410073616 6.203036169159021 -0.08618332  1  23  H
    -6.742514240073616 8.246959759159022 1.28814761  1  24  H
    -2.896138770073616 5.619542999159021 0.0  3  25  Si
    -3.845607130073616 4.3310068691590216 0.0  4  26  O
    -1.105193900073616 5.445807529159022 0.0  2  27  N
    -0.774202540073616 4.4134505491590215 0.0  1  28  H
    0.20326431992638397 6.640353949159021 0.0  3  29  Si
    1.7692012499263838 6.3731070991590215 0.0  4  30  O
%endblock AtomicCoordinatesAndAtomicSpecies

%include ../../../../Defaults.fdf
