SystemLabel      baseGGG

NumberOfAtoms    195

NumberOfSpecies  5
%block ChemicalSpeciesLabel
    1   14  Si
    2    1  H
    3    8  O
    4    7  N
    5   15  P
%endblock ChemicalSpeciesLabel

############################################
# This overrides Defaults.fdf configuration
############################################
MD.TypeOfRun                Verlet # CG, Verlet
MD.Steps                    1000
MD.Quench                   True
SCF.H.Tolerance             0.00009 eV
SCF.DM.Tolerance            0.00009
MD.MaxForceTol              0.02 eV/Ang
SCF.Mixer.Kick              10
MaxSCFIterations            60
SCF.Mixer.Weight            0.13
SCF.MustConverge            F
MD.LengthTimeStep           1.5 fs

AtomicCoordinatesFormat NotScaledCartesianAng
%block AtomicCoordinatesAndAtomicSpecies
    -1.698013440    16.917076380     2.918471720    1
    -2.433992180    15.865887700     3.731141320    2
    -1.186416650    18.024021930     3.818283920    2
     0.223613390    16.004043310     2.194014630    1
     1.070949760    16.064695720     3.443814420    2
     0.176893010    14.255566630     1.806348360    3
    -0.180600740    13.751351830     0.194357190    1
     0.804590990    12.696099280    -0.173840800    2
     1.047154910    17.140682090     0.260667420    1
     0.535149530    18.568859100     0.257826910    2
    -0.209468560    15.703804260    -1.146421820    1
    -1.609320880    16.238052510    -1.291715020    2
     0.357932020    15.373360710    -2.498714560    2
    -0.277253230     2.011147510     0.136036540    4
    -1.873338490     1.165971590     0.278728070    1
    -1.878409590    -0.281898570    -0.093031350    2
    -3.282380410     2.052668520     0.684923960    4
    -2.775555780     3.702432320     1.213090330    1
    -3.509215640     5.781316360     0.419304280    1
    -4.994466820     6.391097240     0.258222120    3
    -2.057661580     6.890761430     0.327114190    4
    -2.321679710     7.944766330     0.258956140    2
    -0.297111250     6.579808110     0.302152240    1
     0.672872130     7.981086260     0.284351500    4
     0.335316500     9.040972070     0.271848470    2
     1.718364910     7.843520310     0.258220480    2
     0.493780730     5.047596580     0.268159310    4
    -0.629813700     3.762281710     0.416060210    1
    -1.823320210    12.777701290     0.237103030    4
    -3.409204630    13.553518690     0.271351460    1
    -3.213645920    15.042823740     0.255876530    2
    -5.325925950    12.515604560     0.951289540    1
    -6.425463650    12.955607190    -0.000734000    2
    -4.621303350    10.379664130     0.351065540    1
    -5.743743070     9.075315990     0.260290960    4
    -5.444462930     8.030233020     0.172492110    2
    -6.783707030     9.241723830     0.258118630    2
    -2.966472930     9.902485070     0.298564270    4
    -1.630190580    10.974627500     0.297869190    1
    -0.091090150    10.536196150     0.258556410    3
    -1.605319540    -2.503503900    -1.208548490    3
    -0.400229760    -2.001537570    -2.411570080    1
    -0.982368810    -0.951149770    -3.354838280    2
    -0.000620620    -3.195143690    -3.269481150    2
     1.703720190    -1.232212620    -1.516327500    1
     2.675129580    -1.468757280    -2.666048260    2
     1.872064210     0.515641390    -1.203675510    3
     1.436693570     1.242551230     0.295201050    1
     2.232127690     2.505702740     0.431407180    2
     2.179224430    -2.240116050     0.587726040    1
     1.606672440    -3.626707810     0.774392590    2
     1.230876840    -0.510484580     1.901996470    1
    -0.271805410    -0.606108820     2.063729310    2
     1.785898510    -0.258502820     3.270600130    2
    -2.984250450    17.445808660     1.742475140    3
    -4.095469880    18.677836560     2.518451430    5
    -3.443824540    20.043611270     2.516842340    3
    -5.417318170    18.479048010     1.821294590    3
     2.763900750    17.101197520    -0.086467780    3
     4.059949830    -1.887766420     0.816974030    3
     4.480172550    -1.938121040     2.519372040    5
     5.845051840    -2.663382680     2.704686610    3
     3.262175740    -2.487708830     3.388214600    3
     4.686454560    -0.245298410     2.791209770    3
    -2.401628220    -2.933506770    -1.630669560    2
     2.972294040    17.454635890    -0.992764800    2
    -8.032561770    14.603854770     6.918784410    1
    -7.848021690    13.298039480     7.668232590    2
    -8.381841580    15.728409030     7.852688770    2
    -5.972723160    15.203353460     6.211584390    1
    -5.354380680    15.721270470     7.488996850    2
    -4.911584320    13.821026040     5.849661660    3
    -4.838114260    13.195908590     4.237227760    1
    -3.403000020    13.126687610     3.785869990    2
    -6.128038830    16.642829870     4.375586070    1
    -7.516832110    17.221692820     4.288909320    2
    -6.138194210    14.698906450     2.912683050    1
    -7.584988690    14.253037640     2.754829370    2
    -5.622198890    15.115869430     1.549498280    2
     2.635475870     4.182167780     4.094419610    4
     1.992769380     2.509568800     4.240750200    1
     3.034969360     1.466545430     4.044664100    2
     0.332626750     2.218032690     4.551942160    4
    -0.397762480     3.784792570     5.070517330    1
    -2.211739110     4.922888470     4.128144160    1
    -3.749517300     4.492742020     4.302558470    3
    -1.852112920     6.734223070     4.271890020    4
    -2.761959680     7.337472340     4.302666480    2
    -0.325545800     7.648461490     4.267163310    1
    -0.467933980     9.346345320     4.299708170    4
    -1.424159230     9.931743740     4.303689960    2
     0.422199560     9.913395770     4.230876150    2
     1.267389770     6.975694120     4.233786320    4
     1.219480960     5.268023110     4.348166090    1
    -5.460865930    11.420039870     4.310367200    4
    -7.204576870    10.990199230     4.312805100    1
    -8.030568740    12.263779660     4.303405700    2
    -7.961368100     8.961450800     4.972566670    1
    -9.191447550     8.637472050     4.131360740    2
    -6.090769020     7.776490660     4.295806730    1
    -6.126745120     6.044668030     4.279099130    4
    -5.234361080     5.419583220     4.232514490    2
    -7.048709120     5.528433200     4.217138400    2
    -4.504802030     8.476690750     4.325690420    4
    -4.157189240    10.151505190     4.335327440    1
    -2.679966200    10.794895730     4.303263780    3
     5.250793540     1.048593760     1.733516460    1
     4.061910260     1.479788770     0.897491640    2
     6.318362470     0.522608770     0.807912410    2
     6.169228650     2.854329100     2.532845610    1
     7.031569910     3.163044820     1.324709860    2
     5.265156480     4.399736690     2.756330420    3
     4.447807600     4.656798930     4.260096320    1
     4.284201780     6.133184410     4.475039860    2
     7.203647670     2.454868100     4.633330510    1
     7.675332310     1.034534300     4.735232790    2
     5.366255110     3.199510380     5.916175850    1
     4.283286670     2.158043980     6.110816590    2
     5.622788380     3.886462620     7.229240590    2
    -9.314764700    14.337780020     5.734798380    3
   -11.018378970    14.483082600     6.531582420    5
   -11.373916770    16.008156630     6.304618540    3
   -11.908821920    13.508040540     5.699033420    3
    -4.684613820    17.535897780     3.976298120    3
     8.370456910     3.984749010     4.977774420    3
     8.795610310     4.272484090     6.651040170    5
    10.328371550     4.586897440     6.780356920    3
     8.192903430     3.038660280     7.465942850    3
     7.835927750     5.709721330     7.036942880    3
   -11.629218270     9.044759980    11.082417540    1
   -10.711966030     8.119825980    11.876121810    2
   -12.673838560     9.674033820    11.964840200    2
   -10.271572500    10.917623670    10.335114470    1
   -10.174036530    11.574464320    11.704297110    2
    -8.572617230    10.451245710     9.981668840    3
    -8.171439000    10.018987110     8.350992150    1
    -6.962913040    10.797215360     7.917349610    2
   -11.305986830    11.980159220     8.441618700    1
   -12.777886610    11.618869430     8.484742680    2
   -10.150993510    10.390077420     7.065739200    1
   -10.889567130     9.070739160     6.886241840    2
    -9.817423500    10.883752530     5.678852940    2
     3.398832090     7.972880040     8.336187440    4
     3.991247680     6.265656720     8.373919970    1
     5.443958530     6.046712690     8.090349190    2
     2.889965560     4.965918380     8.601540000    4
     1.340784610     5.686078880     9.145109080    1
    -0.845107420     5.412103850     8.430704930    1
    -1.696187160     4.060184020     8.433885810    3
    -1.707605940     7.009027380     8.446519510    4
    -2.793492590     6.899525360     8.436129900    2
    -1.119390770     8.686275910     8.403514860    1
    -2.317870150     9.891388380     8.404547610    4
    -3.425399650     9.753799440     8.431643620    2
    -1.964597420    10.883861170     8.348274550    2
     0.533249670     9.188478590     8.357537000    4
     1.619262570     7.891054560     8.569166740    1
    -7.498530920     8.246763590     8.456337530    4
    -8.545235330     6.801230240     8.471025170    1
    -9.994507750     7.254618310     8.434220080    2
    -7.807722100     4.786848190     9.212259970    1
    -8.479150350     3.800167310     8.262323140    2
    -5.620646490     5.092713590     8.493675030    1
    -4.507676370     3.770758380     8.406666890    4
    -3.431396730     3.891350710     8.344000110    2
    -4.820595270     2.764324660     8.434437060    2
    -4.837875250     6.643727760     8.452994400    4
    -5.688814470     8.133497620     8.451719380    1
    -4.996867330     9.584890390     8.434349600    3
   -14.110191970     5.953135540    12.140496420    2
     7.419714840     7.138077510     6.076173190    1
     6.228607680     6.745619990     5.230945530    2
     8.549790850     7.523644380     5.146672070    2
     6.940298310     9.090064410     6.723471020    1
     7.360884770     9.788351960     5.446907110    2
     5.269007060     9.755131620     6.972401540    3
     4.492509370     9.510828420     8.493518730    1
     3.482036810    10.621715140     8.692259580    2
     8.001555930     9.579167790     8.779656010    1
     9.284154080     8.808007360     8.867655910    2
     6.140034610     8.944732700    10.114305990    1
     5.980332180     7.428317440    10.241404540    2
     5.890190830     9.587108420    11.447399960    2
   -12.495625320     8.031684020     9.900602830    3
   -13.655993790     6.822859960    11.956377220    3
   -13.885326480     7.127249690    10.253855640    5
   -15.169437370     8.029311480     9.984910890    3
   -13.922718700     5.791791570     9.385681050    3
   -10.830881670    13.648442210     8.047561640    3
     8.211542420    11.312797080     8.955791170    3
     8.357942940    11.724863580    10.647119890    5
     9.282959510    12.955214100    10.843013240    3
     8.656487640    10.451566040    11.528857260    3
     6.781438480    12.178808570    11.014774570    3
     6.603505540    13.059910690    10.582546990    2
%endblock AtomicCoordinatesAndAtomicSpecies

#############
# Unit Cell
#############
LatticeConstant 1.0 Ang
%block LatticeVectors
    34.272217   0.000000    0.000000
    0.000000    33.165968   0.000000
    0.000000    0.000000    24.787269
%endblock LatticeVectors

%include ../../../Defaults.fdf
