SystemLabel      GC

NumberOfAtoms    29

NumberOfSpecies  4
%block ChemicalSpeciesLabel
    1    8  O
    2    7  N
    3   14  Si
    4    1  H
%endblock ChemicalSpeciesLabel

# Single point calculation
MD.TypeOfRun                CG
MD.Steps                    0
SCF.MustConverge            F # In case it does not. There can be 2 very close atoms

AtomicCoordinatesFormat NotScaledCartesianAng
%block AtomicCoordinatesAndAtomicSpecies
0.854927710    3.902811360    0.000000000       1
-3.151486600   0.823854130    0.000000000       2
1.928518680    1.174000900    0.000000000       2
0.979899500    -1.830275890   0.000000000       2
-2.159258930   -2.028004800   0.000000000       2
3.785319770    -1.112700660   0.000000000       2
-1.345933810   0.976250250    0.000000000       3
-0.599439880   -1.096077170   0.000000000       3
0.453182890    2.350510230    0.000000000       3
2.133302030    -0.576510800   0.000000000       3
-3.516065660   -0.842056510   0.000000000       3
2.824527830    1.754723110    0.000000000       4
-4.877551690   -1.469214660   0.000000000       4
3.994952020    -2.143204000   0.000000000       4
4.620903610    -0.483666060   0.000000000       4
-2.279085180   -3.081514090   0.000000000       4
8.065051465    7.354935306    -0.000000000      3
9.934010955    8.614578936    -0.000000000      3
9.475078575    4.613197086    -0.000000000      3
11.542671295   7.119788306    -0.000000000      3
8.124581415    5.669982846    -0.000000000      2
6.435052265    7.984995536    -0.000000000      2
11.118967445   5.404287496    -0.000000000      2
10.214374655   10.084801456   -0.000000000      4
13.038082675   7.338640846    -0.000000000      4
6.190593275    9.003461486    -0.000000000      4
5.608311085    7.328147406    -0.000000000      4
9.534354335    3.030755056    -0.000000000      1
11.890623035   4.677320136    -0.000000000      4
%endblock AtomicCoordinatesAndAtomicSpecies

%include ../../../Defaults.fdf
