SystemLabel      AT

NumberOfAtoms    30

NumberOfSpecies  4
%block ChemicalSpeciesLabel
    1    1  H
    2    7  N
    3   14  Si
    4    8  O
%endblock ChemicalSpeciesLabel

# Single point calculation
MD.TypeOfRun                CG
MD.Steps                    0
SCF.MustConverge            F # In case it does not. There can be 2 very close atoms

AtomicCoordinatesFormat NotScaledCartesianAng
%block AtomicCoordinatesAndAtomicSpecies
2.582377650    -5.776830440   0.000000000       1
1.654759240    -5.269361980   0.000000000       2
0.063128840    -6.101704590   0.000000000       3
0.119223240    -7.596849500   0.000000000       1
-1.376892050   -5.182603740   0.000000000       2
-0.824371900   -3.460866440   0.000000000       3
-1.170571480   -1.270002100   0.000000000       3
-2.706933680   -0.417515780   0.000000000       2
-2.754569660   0.634858620    0.000000000       1
-3.637675640   -0.909967860   0.000000000       1
0.218091790    -0.234193970   0.000000000       2
1.872004100    -0.697162300   0.000000000       3
2.828001130    0.461464770    0.000000000       1
2.648150080    -2.255024470   0.000000000       2
1.391921380    -3.454727220   0.000000000       3
1.883643066    5.670530572    0.000000000       2
0.556271546    6.880734872    0.000000000       3
1.196272816    8.242053112    0.000000000       1
-1.529474394   6.210203522    0.000000000       3
-3.559036994   7.340319712    0.000000000       3
-3.404801224   8.500549922    0.940305280       1
-4.544971714   6.318399092    0.512613700       1
-3.975251954   7.816545562    -1.366678340      1
-1.462978974   3.936226902    0.000000000       3
-2.502027704   2.743167402    0.000000000       4
0.194012606    3.302251712    0.000000000       2
0.175995236    2.239806882    0.000000000       1
1.817615676    3.899321922    0.000000000       3
3.012631846    2.884896722    0.000000000       4
2.883680436    6.016037672    0.000000000       1
%endblock AtomicCoordinatesAndAtomicSpecies

%include ../../../Defaults.fdf
