# mpirun -np 4 siesta-4.1.5 < GC.fdf > GC.out &

SystemLabel      GC

NumberOfAtoms    29

NumberOfSpecies  4
%block ChemicalSpeciesLabel
    1    1  H
    2    7  N
    3   14  Si
    4    8  O
%endblock ChemicalSpeciesLabel

############################################
# This overrides Defaults.fdf configuration
############################################
MD.TypeOfRun                Verlet # CG, Verlet
MD.Steps                    0
MaxSCFIterations            200
SCF.MustConverge            F

AtomicCoordinatesFormat NotScaledCartesianAng
%block AtomicCoordinatesAndAtomicSpecies
    0.5647227753138508 4.296514608232298 0.0  1  1  H
    -0.14176395468614916 3.506478428232298 0.0  2  2  N
    -1.8720508646861491 3.947842338232298 0.0  3  3  Si
    -2.0278305446861493 5.437834598232298 0.0  1  4  H
    -3.3953724846861495 2.388934818232298 0.0  3  5  Si
    -4.87856011468615 2.631765178232298 0.0  1  6  H
    -2.196981624686149 0.47565865823229764 0.0  3  7  Si
    -2.9630070846861494 -1.0570580817677024 0.0  2  8  N
    -2.372760534686149 -2.0142711117677026 0.0  1  9  H
    -4.014629404686149 -1.1375183117677024 0.0  1  10  H
    -0.4807815646861492 0.5308329682322976 0.0  2  11  N
    0.5942410553138509 1.8611718082322977 0.0  3  12  Si
    2.2029143753138505 1.8423615482322977 0.0  4  13  O
    5.6164483 -7.44953905 0.0  1  14  H
    4.58206954 -7.2320376 0.0  2  15  N
    3.29666389 -8.492636 0.0  3  16  Si
    3.80117524 -9.90371886 -0.0  1  17  H
    1.65934232 -8.01362137 0.0  2  18  N
    1.68097912 -6.20463398 -0.0  3  19  Si
    0.54543521 -4.28636135 0.0  3  20  Si
    -1.03431493 -3.94450034 0.0  4  21  O
    1.73226934 -2.87719605 0.0  2  22  N
    1.20957366 -1.92961761 -0.0  1  23  H
    3.50853448 -2.77677601 0.0  3  24  Si
    4.13684451 -1.17938608 0.0  2  25  N
    3.54296161 -0.26248101 0.0  1  26  H
    5.18364407 -1.05231197 -0.0  1  27  H
    4.63288658 -4.07521596 -0.0  2  28  N
    3.79410501 -5.58634043 0.0  3  29  Si
%endblock AtomicCoordinatesAndAtomicSpecies

#############
# Unit Cell
#############
LatticeConstant 1.0 Ang
%block LatticeVectors
    30.00000    0.000000    0.000000
    0.000000    45.00000    0.000000
    0.000000    0.000000    10.00000
%endblock LatticeVectors

%include ../../../../Defaults.fdf