# Created by GDIS version 0.90.0
#

SystemLabel      4G

NumberOfAtoms    250

NumberOfSpecies  5
%block ChemicalSpeciesLabel
    1    1  H
    2    8  O
    3    6  C
    4    7  N
    5   15  P
%endblock ChemicalSpeciesLabel

AtomicCoordinatesFormat NotScaledCartesianAng
%block AtomicCoordinatesAndAtomicSpecies
     3.558000000    -8.101000000     3.380000000    1
     4.337000000    -7.542000000     3.330000000    2
     5.627000000    -8.157000000     3.190000000    3
     5.654000000    -8.750000000     2.276000000    1
     5.805000000    -8.805000000     4.048000000    1
     6.713000000    -7.099000000     3.130000000    3
     7.693000000    -7.576000000     3.118000000    1
     6.632000000    -6.405000000     1.860000000    2
     6.958000000    -5.037000000     2.040000000    3
     7.735000000    -4.759000000     1.327000000    1
     5.785000000    -4.219000000     1.620000000    4
     4.456000000    -4.566000000     1.600000000    3
     4.149000000    -5.551000000     1.919000000    1
     3.660000000    -3.609000000     1.170000000    4
     4.530000000    -2.553000000     0.900000000    3
     4.259000000    -1.254000000     0.410000000    3
     3.184000000    -0.747000000     0.110000000    2
     5.437000000    -0.504000000     0.270000000    4
     5.349000000     0.429000000    -0.079000000    1
     6.712000000    -0.955000000     0.570000000    3
     7.709000000    -0.094000000     0.370000000    4
     7.636000000     0.848000000     0.013000000    1
     8.640000000    -0.425000000     0.580000000    1
     6.966000000    -2.183000000     1.030000000    4
     5.830000000    -2.919000000     1.170000000    3
     6.601000000    -5.985000000     4.170000000    3
     5.567000000    -5.684000000     4.339000000    1
     7.355000000    -4.850000000     3.500000000    3
     7.493000000    -4.036000000     4.211000000    1
     8.328000000    -5.208000000     3.164000000    1
     7.183000000    -6.339000000     5.430000000    2
     7.170000000    -5.306000000     6.620000000    5
     8.139000000    -5.741000000     7.660000000    2
     5.786000000    -5.065000000     7.090000000    2
     7.724000000    -4.004000000     5.890000000    2
     9.142000000    -3.824000000     5.750000000    3
     9.484000000    -4.309000000     4.836000000    1
     9.642000000    -4.273000000     6.608000000    1
     9.484000000    -2.347000000     5.690000000    3
    10.566000000    -2.219000000     5.679000000    1
     9.041000000    -1.807000000     4.420000000    2
     8.577000000    -0.480000000     4.600000000    3
     9.080000000     0.174000000     3.888000000    1
     7.147000000    -0.425000000     4.180000000    4
     6.216000000    -1.435000000     4.160000000    3
     6.490000000    -2.430000000     4.479000000    1
     5.030000000    -1.060000000     3.730000000    4
     5.191000000     0.299000000     3.460000000    3
     4.262000000     1.246000000     2.970000000    3
     3.082000000     1.092000000     2.670000000    2
     4.847000000     2.513000000     2.830000000    4
     4.269000000     3.251000000     2.482000000    1
     6.165000000     2.822000000     3.130000000    3
     6.538000000     4.086000000     2.930000000    4
     5.967000000     4.839000000     2.573000000    1
     7.500000000     4.311000000     3.140000000    1
     7.041000000     1.926000000     3.590000000    4
     6.483000000     0.693000000     3.730000000    3
     8.788000000    -1.471000000     6.730000000    3
     7.756000000    -1.777000000     6.899000000    1
     8.809000000    -0.108000000     6.060000000    3
     8.485000000     0.652000000     6.771000000    1
     9.821000000     0.117000000     5.725000000    1
     9.469000000    -1.454000000     7.990000000    2
     8.900000000    -0.591000000     9.180000000    5
     9.951000000    -0.434000000    10.220000000    2
     7.606000000    -1.137000000     9.650000000    2
     8.663000000     0.804000000     8.450000000    2
     9.759000000     1.721000000     8.310000000    3
    10.310000000     1.499000000     7.396000000    1
    10.422000000     1.613000000     9.168000000    1
     9.249000000     3.149000000     8.250000000    3
    10.090000000     3.842000000     8.238000000    1
     8.584000000     3.364000000     6.980000000    2
     7.476000000     4.230000000     7.160000000    3
     7.546000000     5.052000000     6.448000000    1
     6.244000000     3.504000000     6.740000000    4
     6.007000000     2.151000000     6.720000000    3
     6.776000000     1.462000000     7.038000000    1
     4.805000000     1.825000000     6.290000000    4
     4.207000000     3.056000000     6.020000000    3
     2.913000000     3.351000000     5.530000000    3
     2.004000000     2.584000000     5.230000000    2
     2.722000000     4.733000000     5.390000000    4
     1.837000000     5.041000000     5.041000000    1
     3.663000000     5.705000000     5.690000000    3
     3.295000000     6.970000000     5.490000000    4
     2.408000000     7.296000000     5.133000000    1
     3.983000000     7.679000000     5.700000000    1
     4.885000000     5.425000000     6.150000000    4
     5.081000000     4.085000000     6.290000000    3
     8.189000000     3.510000000     9.290000000    3
     7.485000000     2.696000000     9.460000000    1
     7.471000000     4.669000000     8.620000000    3
     6.787000000     5.133000000     9.331000000    1
     8.202000000     5.405000000     8.286000000    1
     8.754000000     3.892000000    10.550000000    2
     7.809000000     4.311000000    11.740000000    5
     8.608000000     5.010000000    12.780000000    2
     7.014000000     3.152000000    12.210000000    2
     6.856000000     5.356000000    11.010000000    2
     7.283000000     6.721000000    10.870000000    3
     7.866000000     6.831000000     9.955000000    1
     7.900000000     6.990000000    11.728000000    1
     6.082000000     7.646000000    10.810000000    3
     6.417000000     8.683000000    10.799000000    1
     5.406000000     7.469000000     9.540000000    2
     4.006000000     7.599000000     9.720000000    3
     3.621000000     8.329000000     9.008000000    1
     3.361000000     6.322000000     9.300000000    4
     3.893000000     5.055000000     9.280000000    3
     4.912000000     4.890000000     9.598000000    1
     3.057000000     4.132000000     8.850000000    4
     1.889000000     4.845000000     8.580000000    3
     0.641000000     4.393000000     8.090000000    3
     0.291000000     3.257000000     7.790000000    2
    -0.267000000     5.453000000     7.950000000    4
    -1.178000000     5.234000000     7.601000000    1
     0.000000000     6.780000000     8.250000000    3
    -0.993000000     7.646000000     8.050000000    4
    -1.915000000     7.441000000     7.693000000    1
    -0.796000000     8.614000000     8.260000000    1
     1.180000000     7.204000000     8.710000000    4
     2.069000000     6.183000000     8.850000000    3
     4.995000000     7.378000000    11.850000000    3
     4.843000000     6.312000000    12.019000000    1
     3.765000000     7.965000000    11.180000000    3
     2.939000000     7.987000000    11.891000000    1
     3.982000000     8.979000000    10.845000000    1
     5.264000000     8.004000000    13.110000000    2
     4.599000000     7.855000000    13.787000000    1
    -8.521000000     2.381000000     4.300000000    1
    -8.078000000     3.231000000     4.350000000    2
    -8.869000000     4.422000000     4.490000000    3
    -9.460000000     4.365000000     5.404000000    1
    -9.535000000     4.507000000     3.632000000    1
    -7.974000000     5.646000000     4.550000000    3
    -8.584000000     6.549000000     4.561000000    1
    -7.275000000     5.664000000     5.820000000    2
    -5.967000000     6.179000000     5.640000000    3
    -5.796000000     6.990000000     6.348000000    1
    -4.992000000     5.133000000     6.060000000    4
    -5.326000000     3.813000000     6.020000000    3
    -6.310000000     3.512000000     5.690000000    1
    -4.438000000     2.860000000     6.390000000    3
    -4.712000000     1.807000000     6.327000000    1
    -3.152000000     3.309000000     6.840000000    3
    -2.234000000     2.429000000     7.220000000    4
    -1.341000000     2.786000000     7.530000000    1
    -2.436000000     1.440000000     7.194000000    1
    -2.827000000     4.613000000     6.880000000    4
    -3.741000000     5.546000000     6.490000000    3
    -3.490000000     6.762000000     6.510000000    2
    -6.855000000     5.691000000     3.510000000    3
    -6.411000000     4.710000000     3.340000000    1
    -5.838000000     6.598000000     4.180000000    3
    -5.050000000     6.849000000     3.469000000    1
    -6.330000000     7.512000000     4.514000000    1
    -7.288000000     6.218000000     2.250000000    2
    -6.263000000     6.351000000     1.060000000    5
    -6.831000000     7.249000000     0.020000000    2
    -5.830000000     5.015000000     0.590000000    2
    -5.052000000     7.083000000     1.790000000    2
    -5.074000000     8.512000000     1.930000000    3
    -5.602000000     8.783000000     2.844000000    1
    -5.589000000     8.944000000     1.072000000    1
    -3.660000000     9.059000000     1.990000000    3
    -3.686000000    10.149000000     2.001000000    1
    -3.063000000     8.697000000     3.260000000    2
    -1.683000000     8.423000000     3.080000000    3
    -1.100000000     9.013000000     3.788000000    1
    -1.427000000     7.016000000     3.500000000    4
    -2.422000000     6.086000000     3.460000000    3
    -3.412000000     6.365000000     3.130000000    1
    -2.190000000     4.805000000     3.830000000    3
    -2.990000000     4.067000000     3.767000000    1
    -0.864000000     4.488000000     4.280000000    3
    -0.567000000     3.251000000     4.660000000    4
     0.377000000     3.069000000     4.970000000    1
    -1.271000000     2.528000000     4.635000000    1
     0.113000000     5.409000000     4.320000000    4
    -0.152000000     6.688000000     3.930000000    3
     0.716000000     7.576000000     3.950000000    2
    -2.694000000     8.493000000     0.950000000    3
    -2.851000000     7.428000000     0.780000000    1
    -1.348000000     8.706000000     1.620000000    3
    -0.550000000     8.492000000     0.909000000    1
    -1.268000000     9.740000000     1.955000000    1
    -2.774000000     9.170000000    -0.310000000    2
    -1.839000000     8.728000000    -1.500000000    5
    -1.832000000     9.790000000    -2.540000000    2
    -2.197000000     7.370000000    -1.970000000    2
    -0.425000000     8.690000000    -0.770000000    2
     0.329000000     9.905000000    -0.630000000    3
     0.031000000    10.418000000     0.285000000    1
     0.130000000    10.548000000    -1.488000000    1
     1.814000000     9.600000000    -0.570000000    3
     2.381000000    10.531000000    -0.559000000    1
     2.121000000     8.973000000     0.700000000    2
     3.134000000     7.998000000     0.520000000    3
     3.943000000     8.180000000     1.228000000    1
     2.589000000     6.675000000     0.940000000    4
     1.250000000     6.430000000     0.900000000    3
     0.567000000     7.199000000     0.570000000    1
     0.753000000     5.226000000     1.270000000    3
    -0.319000000     5.037000000     1.207000000    1
     1.697000000     4.243000000     1.720000000    3
     1.279000000     3.042000000     2.100000000    4
     1.975000000     2.379000000     2.410000000    1
     0.295000000     2.814000000     2.075000000    1
     3.017000000     4.490000000     1.760000000    4
     3.486000000     5.710000000     1.370000000    3
     4.696000000     5.989000000     1.390000000    2
     2.321000000     8.602000000    -1.610000000    3
     1.614000000     7.790000000    -1.780000000    1
     3.569000000     8.055000000    -0.940000000    3
     4.125000000     7.444000000    -1.651000000    1
     4.195000000     8.882000000    -0.605000000    1
     2.620000000     9.215000000    -2.870000000    2
     3.168000000     8.339000000    -4.060000000    5
     3.747000000     9.228000000    -5.100000000    2
     2.133000000     7.388000000    -4.530000000    2
     4.337000000     7.542000000    -3.330000000    2
     5.627000000     8.157000000    -3.190000000    3
     5.654000000     8.750000000    -2.276000000    1
     5.805000000     8.805000000    -4.048000000    1
     6.713000000     7.099000000    -3.130000000    3
     7.693000000     7.576000000    -3.118000000    1
     6.632000000     6.405000000    -1.860000000    2
     6.958000000     5.037000000    -2.040000000    3
     7.737000000     4.754000000    -1.332000000    1
     5.785000000     4.219000000    -1.620000000    4
     4.525000000     4.735000000    -1.660000000    3
     4.366000000     5.751000000    -1.990000000    1
     3.457000000     3.991000000    -1.290000000    3
     2.453000000     4.411000000    -1.353000000    1
     3.721000000     2.654000000    -0.840000000    3
     2.720000000     1.869000000    -0.460000000    4
     2.947000000     0.935000000    -0.150000000    1
     1.769000000     2.208000000    -0.486000000    1
     4.965000000     2.149000000    -0.800000000    4
     6.018000000     2.922000000    -1.190000000    3
     7.187000000     2.503000000    -1.170000000    2
     6.601000000     5.985000000    -4.170000000    3
     5.567000000     5.684000000    -4.339000000    1
     7.355000000     4.850000000    -3.500000000    3
     7.493000000     4.036000000    -4.211000000    1
     8.328000000     5.208000000    -3.164000000    1
     7.183000000     6.339000000    -5.430000000    2
     7.129000000     5.660000000    -6.106000000    1
%endblock AtomicCoordinatesAndAtomicSpecies

PAO.BasisType    split
PAO.BasisSize    DZP
SolutionMethod     diagon
PAO.SplitNorm    0.150000
PAO.EnergyShift    0.020000  Ry
Harris_functional    false
XC.functional    LDA
XC.Authors    PZ
SpinPolarized    false
MeshCutoff    100.000000 Ry
kgrid_cutoff    0.000000 Bohr
ElectronicTemperature    300.000000 K
MaxSCFIterations    50
DM.NumberPulay    0
DM.MixingWeight    0.250000
MD.TypeOfRun    CG
MD.VariableCell    false
MD.NumCGsteps    0
MD.MaxCGDispl    0.200000 Bohr
MD.PreconditionVariableCell    5.000000 Ang
MD.MaxStressTol    1.000000 GPa

%block MD.TargetStress
-1.000000 -1.000000 -1.000000 0.000000 0.000000 0.000000
%endblock MD.TargetStress

MD.MaxForceTol    0.040000 eV/Ang
MD.InitialTimeStep    1
MD.FinalTimeStep    1
MD.LengthTimeStep    1 fs
MD.InitialTemperature    0.000000 K
MD.Quench    false
MD.TargetTemperature    0.000000 K
MD.NoseMass    100.000000 Ry*fs**2
MD.ParrinelloRahmanMass    100.000000 Ry*fs**2
MD.AnnealOption    TemperatureandPressure
MD.TauRelax    100.000000 fs
MD.BulkModulus    100.000000 Ry/Bohr**3
MD.TargetPressure    0.000000 GPa
MD.FCDispl    0.040000 Bohr
MD.FCfirst    1
MD.FClast    0

UseSaveData		false
WriteCoorInital    true
WriteCoorStep    false
WriteForces		false
WriteKpoints		false
WriteEigenvalues		false
WriteKbands		false
WriteBands		false
WriteWaveFunctions		false
WriteMullikenPop		0
WriteDM		true
WriteCoorXmol		false
WriteCoorCerius		false
WriteMDXmol		false
WriteMDhistory		true
