# mpirun -np 4 siesta-4.1.5 < AT.fdf > AT.out &

SystemLabel      AT

NumberOfAtoms    30

NumberOfSpecies  4
%block ChemicalSpeciesLabel
    1    1  H
    2    7  N
    3   14  Si
    4    8  O
%endblock ChemicalSpeciesLabel

############################################
# This overrides Defaults.fdf configuration
############################################
MD.TypeOfRun                Verlet # CG, Verlet
MD.Steps                    0
MaxSCFIterations            200
SCF.MustConverge            F

AtomicCoordinatesFormat NotScaledCartesianAng
%block AtomicCoordinatesAndAtomicSpecies
    2.28494382 -5.19529124 0.0  1  1  H
    1.37433094 -4.6647107 0.0  2  2  N
    -0.21830245 -5.49458215 0.0  3  3  Si
    -0.17484108 -6.98516892 0.0  1  4  H
    -1.66171682 -4.58600741 0.0  2  5  N
    -1.09026419 -2.87456374 0.0  3  6  Si
    -1.53038332 -0.70765692 0.0  3  7  Si
    -3.14415959 -0.09186471 0.0  2  8  N
    -3.40268075 0.95848335 0.0  1  9  H
    -3.95073599 -0.76720972 0.0  1  10  H
    -0.17836637 0.41349951 0.0  2  11  N
    1.49520211 -0.0473996 0.0  3  12  Si
    2.45603905 1.10727302 0.0  1  13  H
    2.30451743 -1.58574382 0.0  2  14  N
    1.10725559 -2.84610319 0.0  3  15  Si
    0.11994208859829941 10.776577898838875 0.0  1  16  H
    -0.6887685914017005 10.084372018838874 0.0  2  17  N
    -2.3453584314017006 10.797492118838875 0.0  3  18  Si
    -2.2484932614017006 12.308217328838875 0.0  1  19  H
    -4.0715147814017 9.454443988838875 0.0  3  20  Si
    -6.425969031401701 9.446457058838874 0.0  3  21  Si
    -6.988387151401701 10.180946708838874 -1.20183078  1  22  H
    -6.725782781401701 7.967365928838874 -0.08618332  1  23  H
    -6.988499611401701 10.011289518838876 1.28814761  1  24  H
    -3.1421241414017005 7.383872758838875 0.0  3  25  Si
    -4.091592501401701 6.095336628838874 0.0  4  26  O
    -1.3511792714017006 7.210137288838874 0.0  2  27  N
    -1.0201879114017005 6.177780308838875 0.0  1  28  H
    -0.04272105140170063 8.404683708838874 0.0  3  29  Si
    1.5232158785982992 8.137436858838875 0.0  4  30  O
%endblock AtomicCoordinatesAndAtomicSpecies

#############
# Unit Cell
#############
LatticeConstant 1.0 Ang
%block LatticeVectors
    30.00000    0.000000    0.000000
    0.000000    45.00000    0.000000
    0.000000    0.000000    10.00000
%endblock LatticeVectors

%include ../../../../Defaults.fdf
