# mpirun -np 4 siesta-4.1.5 < AT.fdf > AT.out &

SystemLabel      AT

NumberOfAtoms    30

NumberOfSpecies  4
%block ChemicalSpeciesLabel
    1    1  H
    2    7  N
    3   14  Si
    4    8  O
%endblock ChemicalSpeciesLabel

############################################
# This overrides Defaults.fdf configuration
############################################
MD.TypeOfRun                Verlet # CG, Verlet
MD.Steps                    0
MaxSCFIterations            300

AtomicCoordinatesFormat NotScaledCartesianAng
%block AtomicCoordinatesAndAtomicSpecies
    2.28494382 -5.19529124 0.0  1  1  H
    1.37433094 -4.6647107 0.0  2  2  N
    -0.21830245 -5.49458215 0.0  3  3  Si
    -0.17484108 -6.98516892 0.0  1  4  H
    -1.66171682 -4.58600741 0.0  2  5  N
    -1.09026419 -2.87456374 0.0  3  6  Si
    -1.53038332 -0.70765692 0.0  3  7  Si
    -3.14415959 -0.09186471 0.0  2  8  N
    -3.40268075 0.95848335 0.0  1  9  H
    -3.95073599 -0.76720972 0.0  1  10  H
    -0.17836637 0.41349951 0.0  2  11  N
    1.49520211 -0.0473996 0.0  3  12  Si
    2.45603905 1.10727302 0.0  1  13  H
    2.30451743 -1.58574382 0.0  2  14  N
    1.10725559 -2.84610319 0.0  3  15  Si
    0.12277461796174599 10.756261585620273 0.0  1  16  H
    -0.685936062038254 10.064055705620271 0.0  2  17  N
    -2.342525902038254 10.77717580562027 0.0  3  18  Si
    -2.245660732038254 12.287901015620271 0.0  1  19  H
    -4.068682252038254 9.434127675620271 0.0  3  20  Si
    -6.423136502038254 9.426140745620271 0.0  3  21  Si
    -6.985554622038254 10.16063039562027 -1.20183078  1  22  H
    -6.722950252038254 7.947049615620271 -0.08618332  1  23  H
    -6.985667082038254 9.990973205620271 1.28814761  1  24  H
    -3.139291612038254 7.363556445620271 0.0  3  25  Si
    -4.088759972038254 6.075020315620272 0.0  4  26  O
    -1.348346742038254 7.189820975620272 0.0  2  27  N
    -1.017355382038254 6.1574639956202715 0.0  1  28  H
    -0.03988852203825405 8.38436739562027 0.0  3  29  Si
    1.5260484079617458 8.11712054562027 0.0  4  30  O
%endblock AtomicCoordinatesAndAtomicSpecies

%include ../../../../Defaults.fdf
