# mpirun -np 4 siesta-4.1.5 < GC.fdf > GC.out &

SystemLabel      GC

NumberOfAtoms    29

NumberOfSpecies  4
%block ChemicalSpeciesLabel
    1    1  H
    2    7  N
    3   14  Si
    4    8  O
%endblock ChemicalSpeciesLabel

############################################
# This overrides Defaults.fdf configuration
############################################
MD.TypeOfRun                Verlet # CG, Verlet
MD.Steps                    0
MaxSCFIterations            200
SCF.MustConverge            F

AtomicCoordinatesFormat NotScaledCartesianAng
%block AtomicCoordinatesAndAtomicSpecies
    0.809598784110566 3.9320656169829795 0.0  1  1  H
    0.10311205411056604 3.1420294369829795 0.0  2  2  N
    -1.627174855889434 3.5833933469829793 0.0  3  3  Si
    -1.7829545358894339 5.0733856069829795 0.0  1  4  H
    -3.150496475889434 2.0244858269829793 0.0  3  5  Si
    -4.633684105889435 2.2673161869829794 0.0  1  6  H
    -1.9521056158894339 0.11120966698297918 0.0  3  7  Si
    -2.718131075889434 -1.421507073017021 0.0  2  8  N
    -2.127884525889434 -2.3787201030170206 0.0  1  9  H
    -3.769753395889434 -1.5019673030170209 0.0  1  10  H
    -0.23590555588943396 0.16638397698297916 0.0  2  11  N
    0.839117064110566 1.4967228169829792 0.0  3  12  Si
    2.447790384110566 1.4779125569829792 0.0  4  13  O
    5.6164483 -7.44953905 0.0  1  14  H
    4.58206954 -7.2320376 0.0  2  15  N
    3.29666389 -8.492636 0.0  3  16  Si
    3.80117524 -9.90371886 -0.0  1  17  H
    1.65934232 -8.01362137 0.0  2  18  N
    1.68097912 -6.20463398 -0.0  3  19  Si
    0.54543521 -4.28636135 0.0  3  20  Si
    -1.03431493 -3.94450034 0.0  4  21  O
    1.73226934 -2.87719605 0.0  2  22  N
    1.20957366 -1.92961761 -0.0  1  23  H
    3.50853448 -2.77677601 0.0  3  24  Si
    4.13684451 -1.17938608 0.0  2  25  N
    3.54296161 -0.26248101 0.0  1  26  H
    5.18364407 -1.05231197 -0.0  1  27  H
    4.63288658 -4.07521596 -0.0  2  28  N
    3.79410501 -5.58634043 0.0  3  29  Si
%endblock AtomicCoordinatesAndAtomicSpecies

#############
# Unit Cell
#############
LatticeConstant 1.0 Ang
%block LatticeVectors
    30.00000    0.000000    0.000000
    0.000000    45.00000    0.000000
    0.000000    0.000000    10.00000
%endblock LatticeVectors

%include ../../../../Defaults.fdf