# mpirun -np 4 siesta-4.1.5 < AT.fdf > AT.out &

SystemLabel      AT

NumberOfAtoms    30

NumberOfSpecies  4
%block ChemicalSpeciesLabel
    1    1  H
    2    7  N
    3   14  Si
    4    8  O
%endblock ChemicalSpeciesLabel

############################################
# This overrides Defaults.fdf configuration
############################################
MD.TypeOfRun                Verlet # CG, Verlet
MD.Steps                    0
MaxSCFIterations            300

AtomicCoordinatesFormat NotScaledCartesianAng
%block AtomicCoordinatesAndAtomicSpecies
    2.28494382 -5.19529124 0.0  1  1  H
    1.37433094 -4.6647107 0.0  2  2  N
    -0.21830245 -5.49458215 0.0  3  3  Si
    -0.17484108 -6.98516892 0.0  1  4  H
    -1.66171682 -4.58600741 0.0  2  5  N
    -1.09026419 -2.87456374 0.0  3  6  Si
    -1.53038332 -0.70765692 0.0  3  7  Si
    -3.14415959 -0.09186471 0.0  2  8  N
    -3.40268075 0.95848335 0.0  1  9  H
    -3.95073599 -0.76720972 0.0  1  10  H
    -0.17836637 0.41349951 0.0  2  11  N
    1.49520211 -0.0473996 0.0  3  12  Si
    2.45603905 1.10727302 0.0  1  13  H
    2.30451743 -1.58574382 0.0  2  14  N
    1.10725559 -2.84610319 0.0  3  15  Si
    -0.054063812557990865 12.024635001228454 0.0  1  16  H
    -0.8627744925579909 11.332429121228454 0.0  2  17  N
    -2.519364332557991 12.045549221228454 0.0  3  18  Si
    -2.422499162557991 13.556274431228452 0.0  1  19  H
    -4.2455206825579905 10.702501091228452 0.0  3  20  Si
    -6.599974932557991 10.694514161228454 0.0  3  21  Si
    -7.1623930525579915 11.429003811228453 -1.20183078  1  22  H
    -6.8997886825579915 9.215423031228454 -0.08618332  1  23  H
    -7.162505512557991 11.259346621228453 1.28814761  1  24  H
    -3.316130042557991 8.631929861228453 0.0  3  25  Si
    -4.265598402557991 7.343393731228453 0.0  4  26  O
    -1.525185172557991 8.458194391228453 0.0  2  27  N
    -1.194193812557991 7.4258374112284535 0.0  1  28  H
    -0.2167269525579909 9.652740811228453 0.0  3  29  Si
    1.349209977442009 9.385493961228454 0.0  4  30  O
%endblock AtomicCoordinatesAndAtomicSpecies

%include ../../../../Defaults.fdf
