SystemLabel      AT

NumberOfAtoms    30

NumberOfSpecies  4
%block ChemicalSpeciesLabel
    1    1  H
    2    7  N
    3   14  Si
    4    8  O
%endblock ChemicalSpeciesLabel

# Single point calculation
MD.TypeOfRun                CG
MD.Steps                    0
SCF.MustConverge            F # In case it does not. There can be 2 very close atoms

AtomicCoordinatesFormat NotScaledCartesianAng
%block AtomicCoordinatesAndAtomicSpecies
2.582377650    -5.776830440   0.000000000       1
1.654759240    -5.269361980   0.000000000       2
0.063128840    -6.101704590   0.000000000       3
0.119223240    -7.596849500   0.000000000       1
-1.376892050   -5.182603740   0.000000000       2
-0.824371900   -3.460866440   0.000000000       3
-1.170571480   -1.270002100   0.000000000       3
-2.706933680   -0.417515780   0.000000000       2
-2.754569660   0.634858620    0.000000000       1
-3.637675640   -0.909967860   0.000000000       1
0.218091790    -0.234193970   0.000000000       2
1.872004100    -0.697162300   0.000000000       3
2.828001130    0.461464770    0.000000000       1
2.648150080    -2.255024470   0.000000000       2
1.391921380    -3.454727220   0.000000000       3
1.866848068    6.657567181    0.000000000       2
0.539476548    7.867771481    0.000000000       3
1.179477818    9.229089721    0.000000000       1
-1.546269392   7.197240131    0.000000000       3
-3.575831992   8.327356321    0.000000000       3
-3.421596222   9.487586531    0.940305280       1
-4.561766712   7.305435701    0.512613700       1
-3.992046952   8.803582171    -1.366678340      1
-1.479773972   4.923263511    0.000000000       3
-2.518822702   3.730204011    0.000000000       4
0.177217608    4.289288321    0.000000000       2
0.159200238    3.226843491    0.000000000       1
1.800820678    4.886358531    0.000000000       3
2.995836848    3.871933331    0.000000000       4
2.866885438    7.003074281    0.000000000       1
%endblock AtomicCoordinatesAndAtomicSpecies

%include ../../../Defaults.fdf
