# mpirun -np 4 siesta-4.1.5 < AT.fdf > AT.out &

SystemLabel      AT

NumberOfAtoms    30

NumberOfSpecies  4
%block ChemicalSpeciesLabel
    1    1  H
    2    7  N
    3   14  Si
    4    8  O
%endblock ChemicalSpeciesLabel

############################################
# This overrides Defaults.fdf configuration
############################################
MD.TypeOfRun                Verlet # CG, Verlet
MD.Steps                    0
MaxSCFIterations            300

AtomicCoordinatesFormat NotScaledCartesianAng
%block AtomicCoordinatesAndAtomicSpecies
    2.28494382 -5.19529124 0.0  1  1  H
    1.37433094 -4.6647107 0.0  2  2  N
    -0.21830245 -5.49458215 0.0  3  3  Si
    -0.17484108 -6.98516892 0.0  1  4  H
    -1.66171682 -4.58600741 0.0  2  5  N
    -1.09026419 -2.87456374 0.0  3  6  Si
    -1.53038332 -0.70765692 0.0  3  7  Si
    -3.14415959 -0.09186471 0.0  2  8  N
    -3.40268075 0.95848335 0.0  1  9  H
    -3.95073599 -0.76720972 0.0  1  10  H
    -0.17836637 0.41349951 0.0  2  11  N
    1.49520211 -0.0473996 0.0  3  12  Si
    2.45603905 1.10727302 0.0  1  13  H
    2.30451743 -1.58574382 0.0  2  14  N
    1.10725559 -2.84610319 0.0  3  15  Si
    0.32171785229644984 9.329341493061067 0.0  1  16  H
    -0.4869928277035502 8.637135613061067 0.0  2  17  N
    -2.14358266770355 9.350255713061067 0.0  3  18  Si
    -2.04671749770355 10.860980923061067 0.0  1  19  H
    -3.86973901770355 8.007207583061067 0.0  3  20  Si
    -6.2241932677035505 7.999220653061068 0.0  3  21  Si
    -6.786611387703551 8.733710303061066 -1.20183078  1  22  H
    -6.524007017703551 6.520129523061067 -0.08618332  1  23  H
    -6.78672384770355 8.564053113061068 1.28814761  1  24  H
    -2.9403483777035504 5.936636353061067 0.0  3  25  Si
    -3.8898167377035504 4.648100223061067 0.0  4  26  O
    -1.1494035077035503 5.762900883061067 0.0  2  27  N
    -0.8184121477035502 4.730543903061067 0.0  1  28  H
    0.1590547122964498 6.957447303061066 0.0  3  29  Si
    1.7249916422964497 6.690200453061067 0.0  4  30  O
%endblock AtomicCoordinatesAndAtomicSpecies

%include ../../../../Defaults.fdf
