# mpirun -np 4 siesta-4.1.5 < AT.fdf > AT.out &

SystemLabel      AT

NumberOfAtoms    30

NumberOfSpecies  4
%block ChemicalSpeciesLabel
    1    1  H
    2    7  N
    3   14  Si
    4    8  O
%endblock ChemicalSpeciesLabel

############################################
# This overrides Defaults.fdf configuration
############################################
MD.TypeOfRun                Verlet # CG, Verlet
MD.Steps                    0
MaxSCFIterations            300

AtomicCoordinatesFormat NotScaledCartesianAng
%block AtomicCoordinatesAndAtomicSpecies
    2.28494382 -5.19529124 0.0  1  1  H
    1.37433094 -4.6647107 0.0  2  2  N
    -0.21830245 -5.49458215 0.0  3  3  Si
    -0.17484108 -6.98516892 0.0  1  4  H
    -1.66171682 -4.58600741 0.0  2  5  N
    -1.09026419 -2.87456374 0.0  3  6  Si
    -1.53038332 -0.70765692 0.0  3  7  Si
    -3.14415959 -0.09186471 0.0  2  8  N
    -3.40268075 0.95848335 0.0  1  9  H
    -3.95073599 -0.76720972 0.0  1  10  H
    -0.17836637 0.41349951 0.0  2  11  N
    1.49520211 -0.0473996 0.0  3  12  Si
    2.45603905 1.10727302 0.0  1  13  H
    2.30451743 -1.58574382 0.0  2  14  N
    1.10725559 -2.84610319 0.0  3  15  Si
    0.4101370675563182 8.695154785256976 0.0  1  16  H
    -0.39857361244368184 8.002948905256975 0.0  2  17  N
    -2.055163452443682 8.716069005256976 0.0  3  18  Si
    -1.9582982824436816 10.226794215256977 0.0  1  19  H
    -3.7813198024436816 7.373020875256976 0.0  3  20  Si
    -6.135774052443682 7.365033945256976 0.0  3  21  Si
    -6.698192172443682 8.099523595256976 -1.20183078  1  22  H
    -6.435587802443682 5.885942815256976 -0.08618332  1  23  H
    -6.698304632443682 7.929866405256976 1.28814761  1  24  H
    -2.8519291624436818 5.302449645256976 0.0  3  25  Si
    -3.801397522443682 4.013913515256975 0.0  4  26  O
    -1.0609842924436819 5.128714175256976 0.0  2  27  N
    -0.7299929324436818 4.096357195256976 0.0  1  28  H
    0.24747392755631817 6.323260595256976 0.0  3  29  Si
    1.8134108575563181 6.056013745256976 0.0  4  30  O
%endblock AtomicCoordinatesAndAtomicSpecies

%include ../../../../Defaults.fdf
