# mpirun -np 4 siesta-4.1.5 < GC.fdf > GC.out &

SystemLabel      GC

NumberOfAtoms    29

NumberOfSpecies  4
%block ChemicalSpeciesLabel
    1    1  H
    2    7  N
    3   14  Si
    4    8  O
%endblock ChemicalSpeciesLabel

############################################
# This overrides Defaults.fdf configuration
############################################
MD.TypeOfRun                CG # CG, Verlet
MD.Steps                    0
MaxSCFIterations            600

AtomicCoordinatesFormat NotScaledCartesianAng
%block AtomicCoordinatesAndAtomicSpecies
    -0.3961909879385703 5.726642669432669 0.0  1  1  H
    -1.1026777179385703 4.936606489432669 0.0  2  2  N
    -2.83296462793857 5.377970399432669 0.0  3  3  Si
    -2.9887443079385703 6.867962659432669 0.0  1  4  H
    -4.35628624793857 3.8190628794326686 0.0  3  5  Si
    -5.839473877938571 4.061893239432669 0.0  1  6  H
    -3.15789538793857 1.9057867194326688 0.0  3  7  Si
    -3.9239208479385703 0.3730699794326686 0.0  2  8  N
    -3.33367429793857 -0.5841430505673313 0.0  1  9  H
    -4.97554316793857 0.2926097494326687 0.0  1  10  H
    -1.4416953279385702 1.9609610294326687 0.0  2  11  N
    -0.3666727079385703 3.2912998694326685 0.0  3  12  Si
    1.2420006120614295 3.272489609432669 0.0  4  13  O
    5.6164483 -7.44953905 0.0  1  14  H
    4.58206954 -7.2320376 0.0  2  15  N
    3.29666389 -8.492636 0.0  3  16  Si
    3.80117524 -9.90371886 -0.0  1  17  H
    1.65934232 -8.01362137 0.0  2  18  N
    1.68097912 -6.20463398 -0.0  3  19  Si
    0.54543521 -4.28636135 0.0  3  20  Si
    -1.03431493 -3.94450034 0.0  4  21  O
    1.73226934 -2.87719605 0.0  2  22  N
    1.20957366 -1.92961761 -0.0  1  23  H
    3.50853448 -2.77677601 0.0  3  24  Si
    4.13684451 -1.17938608 0.0  2  25  N
    3.54296161 -0.26248101 0.0  1  26  H
    5.18364407 -1.05231197 -0.0  1  27  H
    4.63288658 -4.07521596 -0.0  2  28  N
    3.79410501 -5.58634043 0.0  3  29  Si
%endblock AtomicCoordinatesAndAtomicSpecies

%include ../../../../Defaults.fdf