SystemLabel      GC

NumberOfAtoms    29

NumberOfSpecies  4
%block ChemicalSpeciesLabel
    1    8  O
    2    7  N
    3   14  Si
    4    1  H
%endblock ChemicalSpeciesLabel

# Single point calculation
MD.TypeOfRun                CG
MD.Steps                    0
SCF.MustConverge            F # In case it does not. There can be 2 very close atoms

AtomicCoordinatesFormat NotScaledCartesianAng
%block AtomicCoordinatesAndAtomicSpecies
0.958671510    3.803529300    0.000000000       1
-3.038688210   0.998073330    0.000000000       2
2.066567750    1.099065770    0.000000000       2
1.029569860    -1.834680850   0.000000000       2
-2.108567660   -1.881798240   0.000000000       2
3.912411070    -1.180894430   0.000000000       2
-1.235636790   1.044983000    0.000000000       3
-0.501909240   -1.031832280   0.000000000       3
0.629463280    2.232755840    0.000000000       3
2.280054370    -0.658293540   0.000000000       3
-3.424812990   -0.662324160   0.000000000       3
2.965974160    1.682263990    0.000000000       4
-4.796229390   -1.238728480   0.000000000       4
4.096559410    -2.214148760   0.000000000       4
4.792108680    -0.529147250   0.000000000       4
-2.266861300   -2.922393730   0.000000000       4
4.509532298    4.817773626    0.000000000       3
6.435010048    6.009402956    0.000000000       3
5.970203658    2.083219256    0.000000000       3
8.041383578    4.530265846    0.000000000       3
4.611816838    3.108418936    0.000000000       2
2.930154208    5.488003116    0.000000000       2
7.623273558    2.798382936    0.000000000       2
6.743500868    7.474064316    0.000000000       4
9.533056488    4.730245306    0.000000000       4
2.745527768    6.522876846    0.000000000       4
2.038062418    4.816714386    0.000000000       4
5.960073058    0.484990736    0.000000000       1
8.399871938    2.076552736    0.000000000       4
%endblock AtomicCoordinatesAndAtomicSpecies

%include ../../../Defaults.fdf
