SystemLabel      10G_Chain

NumberOfAtoms    636

NumberOfSpecies  5
%block ChemicalSpeciesLabel
    1   14  Si
    2    1  H
    3    8  O
    4    7  N
    5   15  P
%endblock ChemicalSpeciesLabel

############################################
# This overrides Defaults.fdf configuration
############################################
MD.TypeOfRun                Verlet # CG, Verlet
MD.Steps                    2000
MD.Quench                   True
SCF.H.Tolerance             0.00005 eV
SCF.DM.Tolerance            0.00005
MD.MaxForceTol              0.005 eV/Ang

SCF.MustConverge            T
MD.LengthTimeStep           0.5 fs

%block SCF.Mixers
    init
    mid
    final
%endblock

%block SCF.Mixer.init
    method pulay
    weight 0.07
    history 10
    restart 12
    restart.save 4
    next mid
    iterations 30
%endblock

%block SCF.Mixer.mid
    method pulay
    weight 0.13
    history 6
    restart 12
    restart.save 3
    next final
    iterations 24
%endblock

%block SCF.Mixer.final
    method pulay
    weight 0.2
    history 6
    restart 20
    iterations 15
%endblock

AtomicCoordinatesFormat NotScaledCartesianAng
%block AtomicCoordinatesAndAtomicSpecies
    -1.739500000    16.886774640     2.945676380    1
    -2.407893060    15.821240650     3.778675000    2
    -1.338415690    18.071058200     3.780301270    2
     0.322190250    16.022101020     2.176831750    1
     1.161114940    16.092230440     3.427357530    2
     0.177612240    14.294920330     1.841318940    3
    -0.176915990    13.742385490     0.229704090    1
     0.803203530    12.677824740    -0.175179220    2
     1.050643510    17.107689590     0.203154420    1
     0.533877040    18.521114390     0.175537220    2
    -0.223299940    15.667752280    -1.180263840    1
    -1.606244480    16.270682310    -1.318002750    2
     0.356523600    15.371862750    -2.547558370    2
    -0.317029400     2.086603610     0.200440070    4
    -1.899266840     1.339107000     0.720381790    1
    -2.052071670    -0.092391780     0.351128830    2
    -3.164551130     2.257695970     1.387876360    4
    -2.596005150     3.954012850     1.547871590    1
    -3.486280000     5.860393730     0.508502900    1
    -4.991842160     6.382227950     0.264081680    3
    -2.055562000     6.947130850     0.265800070    4
    -2.320687180     8.003860680     0.262218870    2
    -0.302608890     6.628355730     0.197566640    1
     0.685087180     8.001480750     0.360445970    4
     0.356244380     9.079597080     0.350827880    2
     1.723475610     7.831392690     0.269970160    2
     0.490061100     5.103941580    -0.038299440    4
    -0.596540260     3.854492400     0.380633240    1
    -1.808824570    12.762632770     0.284919900    4
    -3.413153810    13.524537850     0.269872120    1
    -3.211727430    15.014565620     0.263296030    2
    -5.312224940    12.468672130     0.924699110    1
    -6.422287430    12.945323130    -0.000357000    2
    -4.610831070    10.361948650     0.297232400    1
    -5.742942290     9.056768430     0.255365880    4
    -5.460707870     8.005960990     0.177580050    2
    -6.779406550     9.258607440     0.263013370    2
    -2.951271660     9.874320620     0.321155220    4
    -1.627857590    10.964369690     0.318540670    1
    -0.090543530    10.517325600     0.264147990    3
    -1.604981020    -2.516447760    -1.231539940    3
    -0.385136700    -1.979648570    -2.373423290    1
    -0.981226890    -0.898227860    -3.251185770    2
     0.000632390    -3.147224260    -3.251685030    2
     1.724952590    -1.223136240    -1.484248630    1
     2.676137860    -1.439467960    -2.636609110    2
     1.870407690     0.538292240    -1.227086460    3
     1.398617900     1.267710110     0.269263570    1
     2.230030490     2.516404770     0.439557710    2
     2.303819850    -2.163593760     0.620625440    1
     1.873181810    -3.596156220     0.791011220    2
     1.219859250    -0.502903260     1.880654010    1
    -0.270252910    -0.718923310     2.020303950    2
     1.784402270    -0.268073500     3.250601820    2
    -2.945396840    17.442944330     1.763156450    3
    -4.082288840    18.565562850     2.496590970    5
    -3.480489820    20.038332880     2.551310660    3
    -5.443519530    18.518504110     1.754000400    3
     2.763816930    17.080532260    -0.088171700    3
     4.013150870    -1.888689320     0.877388470    3
     4.522772170    -1.959832740     2.503770320    5
     5.886041920    -2.695405740     2.635388480    3
     3.302909350    -2.514568730     3.336802650    3
     4.728238810    -0.269739240     2.724754930    3
    -2.381941590    -2.960938300    -1.667436680    2
     3.033751310    17.441764610    -0.969160690    2
    -8.015417750    14.600875210     7.014283780    1
    -7.760748020    13.302603500     7.732647780    2
    -8.475709220    15.643485610     7.995326950    2
    -5.880596650    15.296932020     6.238908400    1
    -5.261879220    15.911883730     7.468998290    2
    -4.908592540    13.846415000     5.883116720    3
    -4.889479100    13.232597890     4.255773910    1
    -3.477545220    13.125332580     3.777436330    2
    -6.082198220    16.667801620     4.295902550    1
    -7.315834700    17.530555310     4.305150950    2
    -6.196857010    14.735813320     2.929460890    1
    -7.586278790    14.203449390     2.722927560    2
    -5.619298990    15.103011800     1.580917470    2
     2.674612310     4.151355870     3.981125980    4
     2.061821700     2.475850750     4.102581760    1
     3.122850180     1.436631970     4.040742850    2
     0.371227450     2.173218330     4.258892010    4
    -0.418242890     3.732990000     4.592878480    1
    -2.286864770     4.885428880     3.767680960    1
    -3.748528390     4.496143220     4.304965970    3
    -1.797645890     6.670566900     3.886445530    4
    -2.677789050     7.281880010     4.041407440    2
    -0.305988230     7.608471780     3.986848070    1
    -0.477659900     9.281414150     4.268398610    4
    -1.426137670     9.887535630     4.303764950    2
     0.415728140     9.845598330     4.316086780    2
     1.301035850     6.947758980     3.910009040    4
     1.255644760     5.247795880     4.062727450    1
    -5.462205220    11.427583120     4.344224600    4
    -7.187572360    10.969130270     4.310567720    1
    -8.027997170    12.226242620     4.304833220    2
    -7.927058510     8.927605330     4.934728620    1
    -9.186934460     8.630287230     4.128904780    2
    -6.050694760     7.748450040     4.293208090    1
    -6.055607580     6.018101830     4.332764420    4
    -5.156030010     5.392937450     4.301582380    2
    -6.958524910     5.484163120     4.216963810    2
    -4.481721500     8.478445290     4.321160230    4
    -4.158131500    10.161138970     4.336046030    1
    -2.677435180    10.786554680     4.304883950    3
     5.323006170     0.937676140     1.601753840    1
     4.105855930     1.348229260     0.789427230    2
     6.411572570     0.364119800     0.709878890    2
     6.318877350     2.945483980     2.553378480    1
     7.226680360     3.326818700     1.405662660    2
     5.264352410     4.401115110     2.725642040    3
     4.466893070     4.650552730     4.229442800    1
     4.282063170     6.114995780     4.479945280    2
     7.296629070     2.615156810     4.726571580    1
     7.938296260     1.259529340     4.919892350    2
     5.352753890     3.218827870     5.908671840    1
     4.281771660     2.156526330     6.062464270    2
     5.530548820     3.955734750     7.204594200    2
    -9.280131130    14.294685040     5.804547410    3
   -10.905262160    14.461963500     6.459724310    5
   -11.326431220    15.994803210     6.329464620    3
   -11.864239280    13.484386380     5.709346410    3
    -4.633045520    17.534316600     3.950215160    3
     8.385365130     3.956368910     5.008679070    3
     8.815937070     4.266684480     6.653617500    5
    10.343729130     4.584605840     6.764421160    3
     8.207834490     3.058845270     7.466490380    3
     7.851513450     5.662993040     7.026534830    3
   -11.641721490     9.055948970    11.067372340    1
   -10.704329190     8.180272160    11.861431700    2
   -12.668465620     9.709490110    11.949850130    2
   -10.270129610    10.912761890    10.332831040    1
   -10.169947900    11.597777440    11.684148470    2
    -8.568380570    10.428883530    10.011871450    3
    -8.177793950    10.039313210     8.360260300    1
    -6.960006790    10.789613570     7.906859340    2
   -11.246054760    12.006935940     8.392970920    1
   -12.755069330    11.866196340     8.434162230    2
   -10.138812530    10.423630250     7.028063790    1
   -10.973098860     9.168268910     6.940273620    2
    -9.813333650    10.878464750     5.623145890    2
     3.316952940     7.932596060     8.353578570    4
     3.791736090     6.260171520     8.917772260    1
     5.173713370     5.843483230     8.522709950    2
     2.650851990     5.192848260     9.593194310    4
     1.066031140     6.036861320     9.741105420    1
    -0.914942310     5.450488140     8.607954190    1
    -1.693618840     4.048610540     8.433831930    3
    -1.773526330     7.015005270     8.294708380    4
    -2.857502360     6.922119990     8.344161940    2
    -1.174995610     8.688537280     8.214812120    1
    -2.353626200     9.899778730     8.396977470    4
    -3.476830630     9.797360140     8.433561380    2
    -1.964496650    10.880177800     8.345669520    2
     0.469148770     9.187953640     7.969291370    4
     1.523013410     7.967810040     8.531101240    1
    -7.496906890     8.266747780     8.456310760    4
    -8.542331100     6.834517750     8.459577460    1
    -9.990289740     7.281439080     8.433881700    2
    -7.789275380     4.803789780     9.140583620    1
    -8.474708600     3.775653330     8.257662720    2
    -5.577388870     5.113113790     8.493449000    1
    -4.471190860     3.781844610     8.455292210    4
    -3.390661450     3.866920730     8.346484650    2
    -4.818330340     2.786677580     8.433754130    2
    -4.838645850     6.678118450     8.494797750    4
    -5.690330880     8.166900690     8.477781280    1
    -4.995201590     9.616859590     8.434147880    3
     7.512404990     6.974437240     5.909536800    1
     6.421654260     6.472516680     5.005107730    2
     8.743296740     7.282374300     5.095164150    2
     6.944132910     9.189155020     6.724781110    1
     7.405139790     9.980377550     5.532782320    2
     5.264050600     9.794934830     6.943433340    3
     4.444505270     9.465854970     8.439985040    1
     3.390181910    10.517009540     8.694994270    2
     8.000941640     9.587484790     8.800706550    1
     9.277726180     8.809529190     8.961898090    2
     6.109374390     8.968870090    10.078334130    1
     5.976956080     7.460191380    10.192230120    2
     5.887059420     9.617954140    11.420098650    2
   -12.488656050     8.001957930     9.928190740    3
   -13.873656150     7.077805170    10.232329290    5
   -15.158655390     7.996746080    10.021314720    3
   -13.915001870     5.754490140     9.402252810    3
   -10.791919620    13.668607020     8.078384970    3
     8.205531090    11.325911810     8.965498680    3
     8.259550300    11.758884590    10.654188520    5
     9.273487750    12.943443430    10.806443460    3
     8.647627050    10.434849960    11.503483040    3
     6.517216810    12.314006550    10.893666630    3
   -10.632799920     2.531144460    15.217533840    1
    -9.277682960     2.518274190    15.900849780    2
   -11.687747700     2.246866700    16.253165130    2
   -10.977859200     4.766182440    14.438025020    1
   -11.330781160     5.484702920    15.725346040    2
    -9.368668660     5.392957060    14.054223880    3
    -8.740308480     5.355584210    12.443547800    1
    -8.385265240     6.744441040    12.034522510    2
   -12.375951410     4.888661000    12.442324990    1
   -13.382416550     3.773503930    12.475720420    2
   -10.455399110     4.358199000    11.119193760    1
   -10.258642630     2.873826210    10.981457470    2
   -10.703848040     4.945721250     9.750630970    2
     1.522401530    11.211962760    12.239621230    4
     3.061830990    10.312835030    12.392666130    1
     4.284590050    11.148524630    12.298867810    2
     3.078308210     8.598458910    12.538012030    4
     1.405019170     8.075373400    12.874225870    1
     0.030152040     6.415057060    11.929078410    1
     0.087752820     4.943024290    12.562646910    3
    -1.677515180     7.176467360    11.909894010    4
    -2.409298140     6.384076550    12.036729930    2
    -2.355223520     8.797700120    12.091920830    1
    -4.026996110     8.973016010    12.408754710    4
    -4.816052710     8.181576600    12.474938140    2
    -4.371215490     9.975663120    12.474692320    2
    -1.441457590    10.279006130    12.035863670    4
     0.209844740     9.985896050    12.338195380    1
    -7.072841390     4.472824490    12.552751640    4
    -6.965159060     2.694848460    12.506555710    1
    -8.383646000     2.157384020    12.562922010    2
    -5.056322000     1.587005780    13.034970600    1
    -4.995705440     0.361154740    12.124602860    2
    -3.569964410     3.263315280    12.428445230    1
    -1.866363900     2.974480020    12.496564780    4
    -1.082840410     3.751100230    12.483625480    2
    -1.515721420     1.978312220    12.474960340    2
    -4.006898290     4.935330520    12.410074670    4
    -5.604256340     5.540462160    12.521073370    1
    -5.975501560     7.101163230    12.562875670    3
     5.321441200    13.164649780     9.929829580    1
     4.640159090    12.136792930     9.048219050    2
     5.977165880    14.204532020     9.049399660    2
     3.389498450    14.507649370    10.810543040    1
     3.212232370    15.372774550     9.576437640    2
     1.700271740    13.843681440    10.983699690    3
     1.307603900    13.066913680    12.469416540    1
    -0.179803630    13.125493570    12.651341300    2
     3.805898690    15.495103300    12.950235180    1
     5.262623250    15.822370990    13.178158850    2
     2.866200690    13.708417460    14.149420340    1
     3.748315160    12.493780660    14.320229070    2
     2.228912510    14.024345750    15.463744600    2
   -10.616386620     1.255344640    13.976131590    3
   -10.989498490    -0.344982470    14.645534350    5
   -12.570516860    -0.537647580    14.500399380    3
   -10.169287620    -1.437173640    13.881188130    3
   -13.027858040     6.385664150    11.944174070    3
     2.675955200    16.811699500    13.183484030    3
     2.487492000    17.300696100    14.896693910    5
     2.408961550    18.871982000    15.022059230    3
     3.563678870    16.454449990    15.721727410    3
     0.894065030    16.631733050    15.283829650    3
    -5.818323200    -1.988902910    19.275926740    1
    -4.727832470    -1.258691890    20.030969120    2
    -6.601796840    -2.877124200    20.207323590    2
    -7.423785810    -0.330090370    18.536016750    1
    -8.118872310    -0.090241150    19.856091360    2
    -6.690941180     1.254647130    18.183348370    3
    -6.152064570     1.524132950    16.553661310    1
    -6.779696110     2.789071190    16.075783100    2
    -8.622732810    -1.112678510    16.605145240    1
    -8.742454140    -2.608557780    16.691881290    2
    -6.837529170    -0.348836400    15.242506810    1
    -5.709861350    -1.349396880    15.110347100    2
    -7.315174710     0.089466220    13.880247960    2
    -2.158519760    12.613549860    16.554405920    4
    -0.375694650    12.888051800    16.533661840    1
     0.088752660    14.294369040    16.340536070    2
     0.711555630    11.558012350    16.660424280    4
    -0.277040860    10.167403800    17.193183860    1
    -0.415118190     7.946244110    16.614867840    1
     0.802043300     6.921432860    16.691270560    3
    -2.131368190     7.383753390    16.590845020    4
    -2.229364680     6.292933510    16.604798060    2
    -3.666450810     8.283421410    16.583963910    1
    -5.055522380     7.310963960    16.650764110    4
    -5.086054150     6.201726080    16.691625990    2
    -5.978536640     7.819608010    16.604292480    2
    -3.874683650     9.999719550    16.545060330    4
    -2.406285670    10.845707580    16.726923590    1
    -4.300147400     1.887307510    16.675137370    4
    -3.043863030     0.621363070    16.722555360    1
    -3.746384760    -0.719152750    16.691742890    2
    -0.939270280     0.994285060    17.495035980    1
    -0.089609050     0.179781240    16.516901210    2
    -0.887984230     3.200780290    16.763725500    1
     0.614364790     4.049085890    16.679356600    4
     0.713841960     5.123358040    16.604308470    2
     1.517507920     3.506856250    16.692146300    2
    -2.270025070     4.245541620    16.724438240    4
    -3.875570330     3.649770860    16.702819950    1
    -5.172876180     4.585948670    16.692147800    3
    -0.421469720    16.508322400    14.123465610    1
    -0.089447210    15.372834980    13.177652370    2
    -0.535646670    17.800457420    13.353152590    2
    -2.709765860    16.308104680    14.949175800    1
    -3.478912310    16.901456260    13.792443580    2
    -3.564818450    14.745773710    15.200109910    3
    -3.477674400    13.955620260    16.726011660    1
    -4.727915140    13.125759410    16.868919480    2
    -2.877133740    17.413937290    17.042259730    1
    -1.873075620    18.519544310    17.219753660    2
    -2.627642140    15.472588280    18.348615670    1
    -1.158674660    15.101652530    18.449717640    2
    -3.300997180    15.371591300    19.680835220    2
    -4.994649580    -3.056659490    18.101846120    3
    -4.319425780    -4.563869830    18.479964480    5
    -5.438296110    -5.661603580    18.187653590    3
    -3.037294850    -4.853237720    17.575151910    3
   -10.173849200    -0.357018960    16.333600090    3
    -4.549247180    17.890891870    17.223337400    3
    -4.979753030    18.125103910    18.894062700    5
    -6.064241200    19.237602720    19.063176500    3
    -3.660265380    18.248291700    19.763638350    3
     1.287464640    -2.201156560    23.469446370    1
     1.551114580    -0.971278250    24.302444990    2
     1.315617510    -3.451198000    24.304071260    2
    -0.945626270    -2.093768740    22.700601740    1
    -1.709971940    -2.446597980    23.951127520    2
    -1.400497970    -0.421301200    22.365088930    3
    -1.256328450     0.219167510    20.753474080    1
    -2.541440750     0.884306770    20.348590770    2
    -1.258855260    -3.363034000    20.726924410    1
    -0.289833870    -4.514474310    20.699307210    2
    -0.554227570    -1.574221210    19.343506150    1
     0.951529420    -1.667795220    19.205767240    2
    -1.200283650    -1.494487330    17.976211620    2
    -5.111177100    11.219941340    20.724210060    4
    -3.880019150    12.463515460    21.244151780    1
    -4.226031000    13.860946630    20.874898820    2
    -2.376864910    12.033076900    21.911646350    4
    -2.330948830    10.244606270    22.071641580    1
    -0.842343460     8.757686160    21.032272890    1
     0.750900000     8.782254980    20.787851670    3
    -1.815092620     7.247152930    20.789570060    4
    -1.204533560     6.344829860    20.785988860    2
    -3.571357240     6.947158280    20.721336630    1
    -4.029851530     5.319030880    20.884215960    4
    -3.352102880     4.418403780    20.874597870    2
    -5.063791020     5.123711620    20.793740150    2
    -4.837603730     8.108529910    20.485470550    4
    -4.243869230     9.654267630    20.904403230    1
    -0.057931170     1.697979520    20.808689890    4
     1.710232070     1.530735850    20.793642110    1
     2.030572690     0.061675870    20.787066020    2
     3.133647850     3.172445660    21.448469100    1
     4.339789620     3.104203960    20.523412990    2
     1.754011340     4.912227330    20.821002390    1
     2.371449970     6.525900400    20.779135870    4
     1.746839060     7.416806540    20.701350040    2
     3.414440800     6.690725420    20.786783360    2
     0.027757000     4.802845050    20.844925210    4
    -0.843026700     3.325899710    20.842310660    1
    -2.440527460     3.220191370    20.787917980    3
    -5.562546250    16.336193400    19.276247820    3
    -6.437917330    15.064262580    18.150346700    1
    -5.507908110    14.251934370    17.272584220    2
    -7.199756100    16.029484040    17.272084960    2
    -8.162010210    13.631680480    19.039521360    1
    -9.129821790    13.509641280    17.887160880    2
    -7.696249270    11.926730560    19.296683530    3
    -7.003436280    11.402663580    20.793033560    1
    -7.357629830     9.944914570    20.963327700    2
    -9.027622920    14.317437210    21.144395430    1
    -9.112920750    15.810892470    21.314781210    2
    -7.441043540    13.127634960    22.404424000    1
    -6.114679340    13.840275780    22.544073940    2
    -7.891223940    12.713882080    23.774371810    2
     2.610858240    -2.311344110    22.286926440    3
     4.063145410    -2.977420480    23.020360960    5
     4.001356330    -4.567199000    23.075080650    3
     5.326188810    -2.467631420    22.277770390    3
    -3.084158280    -3.904775080    20.242855280    3
   -10.539845810    13.474485900    21.401158460    3
   -11.043065660    13.367038090    23.027540310    5
   -12.575700970    13.591984900    23.159158470    3
   -10.086500460    14.305537060    23.860572640    3
   -10.658095130    11.708595970    23.248524920    3
     6.403074590     2.093376550    27.538053770    1
     5.719728250     3.226250720    28.256417770    2
     7.192200840     1.271072210    28.519096940    2
     4.635064400     0.709145280    26.762678390    1
     4.263986070    -0.080334120    27.992768280    2
     3.225573270     1.739740440    26.406886710    3
     2.997674700     2.310002670    24.779543900    1
     1.634203960     1.927889260    24.301206320    2
     5.293372930    -0.510098970    24.819672540    1
     6.747691170    -0.898893720    24.828920940    2
     4.740338030     1.344591800    23.453230880    1
     5.863888240     2.320060490    23.246697550    2
     4.323200300     0.802001620    22.104687460    2
    -7.216213880     8.256507150    24.504895970    4
    -7.213435560    10.040553680    24.626351750    1
    -8.565909950    10.654206790    24.564512840    2
    -5.728303010    10.903152420    24.782662000    4
    -4.452970220     9.707461250    25.116648470    1
    -2.302882720     9.263629260    24.291450950    1
    -1.062511740    10.129356530    24.828735960    3
    -2.152044930     7.418825530    24.410215520    4
    -1.115899500     7.145405800    24.565177430    2
    -3.232962270     6.027306270    24.510618060    1
    -2.499463680     4.513969830    24.792168600    4
    -1.400880360     4.268800460    24.827534940    2
    -3.146011470     3.678253420    24.839856770    2
    -4.969048020     6.098538600    24.433779030    4
    -5.507815970     7.711506050    24.586497440    1
     2.918509800     4.202045590    24.867994590    4
     4.383024460     5.222960670    24.834337710    1
     5.602723200     4.329103690    24.828603210    2
     4.379671480     7.394285750    25.458498610    1
     5.461878840     8.104576330    24.652674770    2
     2.213171450     7.860575080    24.816978080    1
     1.625974050     9.488250810    24.856534410    4
     0.566828840     9.768039510    24.825352370    2
     2.291821010    10.298804990    24.740733800    2
     0.988491940     6.637983470    24.844930220    4
     1.259931940     4.946094340    24.859816020    1
     0.082437300     3.851967840    24.828653940    3
   -10.804033250    10.370574230    22.125523830    1
    -9.519868710    10.401070390    21.313197220    2
   -12.023118880    10.537229260    21.233648880    2
   -11.053135320     8.143244020    23.077148470    1
   -11.775766950     7.474419680    21.929432650    2
    -9.564350850     7.136066960    23.249412030    3
    -8.729671500     7.174419420    24.753212790    1
    -8.055119190     5.861508640    25.003715270    2
   -12.084899940     8.119239240    25.250341570    1
   -13.151521770     9.173649260    25.443662340    2
   -10.051787120     8.216818460    26.432441830    1
    -9.408721540     9.581352880    26.586234260    2
    -9.966822710     7.463543060    27.728364190    2
     7.486793210     2.813658640    26.328317400    3
     9.071129450     3.212295860    26.983494300    5
     9.991160970     1.915946000    26.853234610    3
     9.637922110     4.458907360    26.233116400    3
     4.227980410    -1.819996110    24.473985150    3
   -12.649255630     6.486542460    25.532449060    3
   -12.947726730     6.047676930    27.177387490    5
   -14.274646140     5.226392920    27.288191150    3
   -12.789402560     7.390657860    27.990260370    3
   -11.563899320     5.065428390    27.550304820    3
     7.914208990     8.544171750    31.591142330    1
     6.733849250     9.046431730    32.385201690    2
     9.102557100     8.281211130    32.473620120    2
     7.260401640     6.330226290    30.856601030    1
     7.400550740     5.652258070    32.207918460    2
     5.495784480     6.202890770    30.535641440    3
     4.995512220     6.435378630    28.884030290    1
     4.107784440     5.313819180    28.430629330    2
     8.551700870     5.635825070    28.916740910    1
     9.921574940     6.284190420    28.957932220    2
     6.969711070     6.744946600    27.551833780    1
     7.324324920     8.209943120    27.464043610    2
     6.819423530     6.206221640    26.146915880    2
    -6.526556320     4.483610210    28.877348560    4
    -7.544709420     5.892789810    29.441542250    1
    -8.985859060     5.811684650    29.046479940    2
    -6.837675100     7.285950950    30.116964300    4
    -5.059761180     7.034878760    30.264875410    1
    -3.398806480     8.263422130    29.131724180    1
    -3.146560270     9.847079220    28.957601920    3
    -2.056905040     7.086909960    28.818478370    4
    -1.070069400     7.544935210    28.867931930    2
    -2.046958290     5.309594710    28.738582110    1
    -0.525138840     4.574515460    28.920747460    4
     0.495298850     5.054916000    28.957331370    2
    -0.555484780     3.520151550    28.869439510    2
    -3.421138170     4.277966350    28.493061360    4
    -4.828760690     5.064083350    29.054871230    1
     3.749434590     7.868168200    28.980080750    4
     4.241960480     9.571580320    28.983347450    1
     5.755452630     9.646842670    28.957651690    2
     2.839769710    11.222280190    29.664353610    1
     3.132222870    12.422844390    28.781432710    2
     0.867071320    10.175100960    29.017218990    1
    -0.627735660    11.047742780    28.979062200    4
    -1.614003430    10.598234550    28.870254640    2
    -0.641898430    12.101622590    28.957524120    2
     0.708143070     8.451812630    29.018567740    4
     2.017658730     7.344108380    29.001551270    1
     1.860366010     5.743844490    28.957917870    3
   -10.796701270     3.949055870    26.433306790    1
    -9.943397800     4.793765640    25.528877720    2
   -11.848040480     3.238699920    25.618934140    2
    -9.505222090     2.062262420    27.248551100    1
    -9.667812810     1.161082810    26.056552310    2
    -7.719272250     2.067637590    27.467203330    3
    -7.061703490     2.657172520    28.963755030    1
    -5.711447570     2.030010150    29.218764260    2
   -10.362060650     1.326505000    29.324476540    1
   -11.827922150     1.620858100    29.485668080    2
    -8.796147550     2.554766770    30.602104120    1
    -9.187713550     4.017750750    30.716000110    2
    -8.365240000     2.020863480    31.943868640    2
     8.349580980     9.824268030    30.451960730    3
     9.334976490    11.166385490    30.756099280    5
    10.856777100    10.742359120    30.545084710    3
     8.921228360    12.424035930    29.926022800    3
     8.693278410     3.919041660    28.602154960    3
    -9.959734790    -0.377055760    29.489268670    3
    -9.862410830    -0.802392740    31.177958510    5
   -10.410057390    -2.262300970    31.330213450    3
   -10.679930200     0.309062760    32.027253030    3
    -8.035290020    -0.728123600    31.417436620    3
     4.734518260    14.330410900    35.741303830    1
     3.456722960    13.879027700    36.424619770    2
     5.628616180    14.958358000    36.776935120    2
     5.823195930    12.348179420    34.961795010    1
     6.400582570    11.793697450    36.249116030    2
     4.525421000    11.208828360    34.577993870    3
     3.922173300    11.029035510    32.967317790    1
     4.063558800     9.602505060    32.558292500    2
     7.178862990    12.711262920    32.966094980    1
     7.743224680    14.103399140    32.999490410    2
     5.192705480    12.552866580    31.642963750    1
     4.500129470    13.880426050    31.505227460    2
     5.627115550    12.085750790    30.274400960    2
    -3.718620130     2.015786250    32.763391220    4
    -5.472730430     2.334174060    32.916436120    1
    -6.335925420     1.130674480    32.822637800    2
    -6.074565120     3.939525110    33.061782020    4
    -4.681093530     5.003363260    33.397995860    1
    -3.957002670     7.033782530    32.452848400    1
    -4.514594560     8.397340230    33.086416900    3
    -2.091902730     6.902347470    32.433664000    4
    -1.675265300     7.897235780    32.560499920    2
    -0.900570940     5.610676920    32.615690820    1
     0.730342990     6.017713770    32.932524700    4
     1.201125440     7.031296790    32.998708130    2
     1.396728910     5.193263640    32.998462310    2