SystemLabel      GC

NumberOfAtoms    29

NumberOfSpecies  4
%block ChemicalSpeciesLabel
    1    8  O
    2    7  N
    3   14  Si
    4    1  H
%endblock ChemicalSpeciesLabel

# Single point calculation
MD.TypeOfRun                CG
MD.Steps                    0
SCF.MustConverge            F # In case it does not. There can be 2 very close atoms

AtomicCoordinatesFormat NotScaledCartesianAng
%block AtomicCoordinatesAndAtomicSpecies
1.043624880    3.939228610    0.000000000       1
-3.040641290   1.071078170    0.000000000       2
2.054601450    1.213582070    0.000000000       2
0.999014100    -1.732643800   0.000000000       2
-2.132351640   -1.812968220   0.000000000       2
3.860190550    -1.112298180   0.000000000       2
-1.236183220   1.152964460    0.000000000       3
-0.532924260   -0.939006270   0.000000000       3
0.635660470    2.374516770    0.000000000       3
2.245170240    -0.549967100   0.000000000       3
-3.449816660   -0.583665030   0.000000000       3
2.963714090    1.790992630    0.000000000       4
-4.845591350   -1.123549660   0.000000000       4
4.007020910    -2.152308560   0.000000000       4
4.772194380    -0.502318160   0.000000000       4
-2.265399090   -2.864605110   0.000000000       4
5.807682574    5.493400132    0.000000000       3
7.712566544    6.700039072    0.000000000       3
7.216812404    2.727065162    0.000000000       3
9.294282694    5.196282322    0.000000000       3
5.867305244    3.775972562    0.000000000       2
4.268547514    6.247077442    0.000000000       2
8.869107664    3.456902382    0.000000000       2
7.903911344    8.192192822    0.000000000       4
10.778650674   5.415013142    0.000000000       4
4.157202234    7.296272552    0.000000000       4
3.335989804    5.622163262    0.000000000       4
7.206585574    1.118954042    0.000000000       1
9.644533544    2.730210822    0.000000000       4
%endblock AtomicCoordinatesAndAtomicSpecies

%include ../../../Defaults.fdf
