SystemLabel      AT

NumberOfAtoms    30

NumberOfSpecies  4
%block ChemicalSpeciesLabel
    1    1  H
    2    7  N
    3   14  Si
    4    8  O
%endblock ChemicalSpeciesLabel

# Single point calculation
MD.TypeOfRun                CG
MD.Steps                    0
SCF.MustConverge            F # In case it does not. There can be 2 very close atoms

AtomicCoordinatesFormat NotScaledCartesianAng
%block AtomicCoordinatesAndAtomicSpecies
2.582377650    -5.776830440   0.000000000       1
1.654759240    -5.269361980   0.000000000       2
0.063128840    -6.101704590   0.000000000       3
0.119223240    -7.596849500   0.000000000       1
-1.376892050   -5.182603740   0.000000000       2
-0.824371900   -3.460866440   0.000000000       3
-1.170571480   -1.270002100   0.000000000       3
-2.706933680   -0.417515780   0.000000000       2
-2.754569660   0.634858620    0.000000000       1
-3.637675640   -0.909967860   0.000000000       1
0.218091790    -0.234193970   0.000000000       2
1.872004100    -0.697162300   0.000000000       3
2.828001130    0.461464770    0.000000000       1
2.648150080    -2.255024470   0.000000000       2
1.391921380    -3.454727220   0.000000000       3
1.854851640    7.362593330    0.000000000       2
0.527480120    8.572797630    0.000000000       3
1.167481390    9.934115870    0.000000000       1
-1.558265820   7.902266280    0.000000000       3
-3.587828420   9.032382470    0.000000000       3
-3.433592650   10.192612680   0.940305280       1
-4.573763140   8.010461850    0.512613700       1
-4.004043380   9.508608320    -1.366678340      1
-1.491770400   5.628289660    0.000000000       3
-2.530819130   4.435230160    0.000000000       4
0.165221180    4.994314470    0.000000000       2
0.147203810    3.931869640    0.000000000       1
1.788824250    5.591384680    0.000000000       3
2.983840420    4.576959480    0.000000000       4
2.854889010    7.708100430    0.000000000       1
%endblock AtomicCoordinatesAndAtomicSpecies

%include ../../../Defaults.fdf
