# Created by GDIS version 0.90.0
#

SystemLabel      periodic3

NumberOfAtoms    629

NumberOfSpecies  5
%block ChemicalSpeciesLabel
    1   14  Si
    2    1  H
    3    8  O
    4    7  N
    5   15  P
%endblock ChemicalSpeciesLabel

LatticeConstant 1.0 Ang
%block LatticeVectors
 100.0000000000    0.0000000000    0.0000000000
   0.0000000000  100.0000000000    0.0000000000
   0.0000000000    0.0000000000   39.5000000000
%endblock LatticeVectors

AtomicCoordinatesFormat NotScaledCartesianAng
%block AtomicCoordinatesAndAtomicSpecies
     7.646157000    21.249109000    10.279038000    1
     7.651770000    19.944449000    11.080943000    2
     7.255146000    22.377811000    11.202646000    2
     9.919511000    21.671271000     9.597107000    1
    10.555015000    22.113211000    10.908522000    2
    10.732509000    20.119372000     9.291690000    3
    10.945284000    19.458270000     7.703072000    1
    12.402282000    19.249706000     7.412931000    2
     9.672596000    23.069842000     7.630513000    1
     8.215042000    23.462762000     7.701966000    2
     9.779381000    21.054133000     6.337499000    1
     8.355131000    20.552847000     6.146855000    2
    10.380967000    21.158547000     4.959987000    2
    17.711777000     9.834381000     7.641644000    4
    16.920663000     8.217590000     7.735828000    1
    17.845492000     7.048270000     7.736217000    2
    15.197082000     8.075241000     7.773994000    4
    14.615133000     9.746989000     7.769972000    1
    12.823740000    11.117247000     7.855576000    1
    11.263639000    10.748982000     7.848660000    3
    13.423586000    12.824234000     7.759752000    4
    12.580787000    13.522715000     7.765019000    2
    15.049990000    13.581240000     7.755687000    1
    15.013187000    15.278220000     7.855447000    4
    14.083656000    15.945150000     7.769038000    2
    15.933831000    15.780990000     7.765131000    2
    16.581514000    12.785867000     7.716080000    4
    16.421207000    11.078554000     7.758749000    1
    10.247241000    17.695342000     7.738806000    4
     8.473794000    17.482166000     7.789476000    1
     7.838827000    18.819313000     7.569883000    2
     7.545748000    15.486297000     7.665420000    1
     6.094779000    15.172709000     7.891868000    2
     9.287184000    14.071748000     7.804487000    1
     9.084089000    12.362381000     7.825863000    4
     9.928019000    11.668945000     7.841479000    2
     8.118021000    11.942590000     7.779270000    2
    10.909063000    14.677576000     7.816556000    4
    11.402498000    16.322220000     7.773096000    1
    12.932383000    16.818845000     7.678856000    3
    19.972421000     6.445618000     5.030619000    1
    18.854322000     6.914601000     4.111422000    2
    21.032884000     5.736578000     4.216522000    2
    21.173170000     8.329958000     5.940660000    1
    22.167513000     8.674066000     4.854356000    2
    20.325995000     9.877050000     6.236437000    3
    19.569820000    10.208969000     7.758534000    1
    19.447865000    11.701676000     7.849546000    2
    22.113693000     7.775957000     8.057329000    1
    22.443424000     6.320564000     8.190006000    2
    20.356074000     8.637486000     9.384866000    1
    19.178272000     7.682079000     9.463912000    2
    20.594035000     9.167881000    10.760817000    2
     6.416190000    20.985908000     9.037010000    3
     4.691925000    21.284323000     9.312594000    5
     4.311137000    22.803297000     9.123646000    3
     3.614259000    20.380000000     8.534012000    3
    23.495681000     8.838725000     8.277912000    3
    23.856888000     9.060135000     9.979976000    5
    25.421097000     9.274867000    10.143120000    3
    23.146038000     7.892962000    10.818015000    3
     4.256313000    16.676592000    14.190203000    1
     5.003468000    15.611543000    14.980648000    2
     3.341631000    17.494554000    15.076249000    2
     5.832928000    18.379093000    13.518156000    1
     5.980051000    19.167712000    14.806241000    2
     7.473860000    17.774776000    13.201657000    3
     7.911113000    17.172259000    11.633173000    1
     9.224016000    17.766630000    11.227691000    2
     4.783932000    19.297934000    11.563792000    1
     3.336678000    18.888133000    11.599883000    2
     6.019154000    17.725331000    10.271829000    1
     5.186106000    16.471440000    10.057787000    2
     6.341618000    18.246140000     8.896058000    2
    18.936539000    13.397571000    11.566793000    4
    19.233836000    11.613105000    11.625673000    1
    20.666835000    11.193054000    11.564707000    2
    17.913359000    10.493589000    11.624760000    4
    16.467960000    11.512631000    11.493852000    1
    14.221843000    11.625901000    11.671390000    1
    13.197796000    10.401916000    11.673370000    3
    13.691052000    13.353991000    11.626425000    4
    12.601831000    13.424296000    11.650837000    2
    14.588455000    14.904986000    11.612328000    1
    13.592223000    16.280898000    11.672670000    4
    12.480582000    16.232101000    11.677708000    2
    14.040187000    17.235856000    11.657624000    2
    16.300703000    15.120694000    11.615179000    4
    17.162027000    13.648882000    11.549165000    1
     8.227258000    15.300625000    11.750032000    4
     6.902243000    14.085720000    11.752175000    1
     5.539531000    14.737603000    11.759503000    2
     7.333368000    11.932158000    11.724656000    1
     6.299425000    10.845918000    11.748695000    2
     9.580230000    11.767687000    11.701416000    1
    10.437086000    10.271645000    11.724024000    4
    11.524540000    10.228588000    11.674864000    2
     9.934338000     9.347635000    11.707944000    2
    10.533141000    13.210062000    11.702103000    4
     9.965648000    14.827383000    11.705195000    1
    10.910913000    16.124474000    11.673436000    3
    22.710465000    10.569713000    10.143670000    3
    22.739025000    11.852407000     8.960044000    1
    21.579012000    11.620612000     8.009958000    2
    24.026921000    11.888906000     8.172743000    2
    22.610109000    14.101031000     9.849597000    1
    23.223728000    14.921753000     8.732149000    2
    21.033355000    14.908214000    10.145865000    3
    20.261926000    14.750070000    11.685726000    1
    19.406449000    15.973222000    11.875883000    2
    23.712052000    14.196136000    11.972634000    1
    24.821094000    13.177439000    12.102309000    2
    21.784179000    13.929785000    13.312696000    1
    21.386288000    12.477845000    13.460510000    2
    21.646847000    14.643090000    14.635980000    2
     3.257846000    15.868575000    12.950610000    3
     1.749033000    15.249727000    13.298306000    5
     0.699522000    16.386176000    13.034256000    3
     1.492774000    13.959135000    12.442040000    3
     4.749453000    20.980706000    10.994074000    3
    24.201044000    15.865668000    12.184845000    3
    24.451258000    16.284581000    13.832364000    5
    25.690536000    17.251660000    13.968442000    3
    24.550313000    14.916083000    14.645896000    3
     3.698290000    10.309493000    18.183687000    1
     4.917556000     9.973303000    19.052320000    2
     2.488429000    10.382831000    19.096028000    2
     3.993958000    12.562348000    17.389860000    1
     3.595623000    13.317571000    18.640325000    2
     5.657651000    13.072331000    17.051440000    3
     6.298218000    12.909126000    15.430292000    1
     6.904523000    14.220853000    15.017609000    2
     2.724913000    12.855178000    15.394719000    1
     1.551051000    11.906072000    15.399743000    2
     4.531990000    12.152960000    14.017483000    1
     4.538144000    10.641449000    13.852610000    2
     4.680502000    12.809398000    12.659534000    2
    17.402066000    16.861657000    15.398166000    4
    18.758702000    15.670259000    15.481831000    1
    20.137283000    16.232134000    15.344586000    2
    18.449479000    13.972118000    15.547500000    4
    16.687148000    13.848507000    15.633963000    1
    14.893218000    12.467700000    15.521247000    1
    14.873450000    10.865735000    15.514649000    3
    13.391026000    13.483184000    15.498665000    4
    12.486507000    12.867299000    15.501531000    2
    13.079401000    15.248809000    15.454699000    1
    11.425156000    15.671541000    15.439710000    4
    10.534403000    14.976272000    15.407310000    2
    11.192470000    16.701015000    15.370615000    2
    14.254331000    16.515892000    15.447925000    4
    15.865092000    15.935960000    15.483310000    1
     7.774835000    11.718346000    15.461084000    4
     7.520010000     9.956242000    15.482558000    1
     6.061517000     9.691703000    15.272278000    2
     9.235136000     8.577417000    15.432157000    1
     9.140064000     7.090779000    15.599746000    2
    11.047226000     9.894935000    15.533989000    1
    12.650731000     9.268392000    15.567390000    4
    13.551864000     9.884971000    15.523720000    2
    12.791557000     8.226413000    15.538958000    2
    10.887546000    11.614903000    15.518039000    4
     9.402250000    12.478272000    15.483736000    1
     9.279865000    14.070905000    15.382173000    3
    22.765900000    17.370427000    13.976966000    3
    21.243854000    18.061414000    12.838709000    1
    20.454216000    17.116608000    11.951811000    2
    22.251323000    18.803351000    11.972070000    2
    19.813862000    19.766127000    13.740233000    1
    19.790932000    20.735586000    12.582551000    2
    18.092528000    19.302690000    13.952820000    3
    17.569449000    18.745603000    15.508208000    1
    16.121933000    19.098551000    15.712861000    2
    20.554473000    20.631512000    15.844391000    1
    22.060276000    20.520612000    16.016920000    2
    19.248999000    19.150133000    17.149644000    1
    19.828986000    17.768906000    17.400321000    2
    18.684441000    19.627811000    18.456061000    2
     3.532896000     9.018832000    17.019990000    3
     3.096792000     7.412685000    19.082010000    3
     2.745587000     7.468545000    17.350238000    5
     1.192763000     7.607964000    17.104464000    3
     3.434240000     6.265372000    16.566835000    3
     2.100314000    14.444266000    14.939714000    3
    19.868914000    22.245311000    15.963340000    3
    19.802100000    22.713882000    17.706674000    5
    19.943993000    24.277888000    17.788636000    3
    20.703192000    21.680684000    18.522726000    3
     7.142002000     5.861518000    22.278032000    1
     8.355766000     6.328340000    23.086781000    2
     6.203221000     5.125757000    23.203913000    2
     5.976933000     7.839908000    21.543197000    1
     5.327621000     8.310852000    22.837643000    2
     7.161214000     9.128677000    21.228252000    3
     7.730049000     9.524352000    19.638943000    1
     7.431697000    10.958988000    19.317494000    2
     4.772327000     7.092020000    19.574937000    1
     4.900437000     5.589629000    19.676753000    2
     6.646494000     7.857079000    18.290978000    1
     7.606837000     6.686816000    18.134944000    2
     6.360381000     8.360244000    16.899822000    2
    14.461135000    19.171916000    19.479427000    4
    16.249612000    18.983456000    19.600151000    1
    17.032249000    20.252277000    19.586326000    2
    16.972062000    17.413576000    19.677574000    4
    15.600147000    16.294974000    19.677345000    1
    14.923813000    14.144937000    19.795381000    1
    15.803245000    12.805054000    19.825328000    3
    13.115983000    14.122820000    19.676792000    4
    12.747668000    13.092214000    19.697030000    2
    11.848737000    15.391824000    19.632246000    1
    10.265434000    14.778737000    19.723459000    4
     9.957589000    13.675687000    19.654157000    2
     9.479444000    15.469990000    19.609843000    2
    12.073110000    17.101967000    19.562831000    4
    13.731678000    17.536125000    19.618467000    1
     9.624782000     9.472199000    19.699958000    4
    10.430672000     7.879934000    19.791386000    1
     9.394056000     6.821849000    19.578668000    2
    12.624963000     7.688314000    19.699072000    1
    13.412722000     6.436717000    19.959584000    2
    13.357115000     9.810858000    19.807006000    1
    15.032511000    10.205113000    19.842321000    4
    15.395432000    11.235454000    19.842907000    2
    15.757809000     9.440187000    19.819622000    2
    12.233268000    11.127626000    19.779523000    4
    10.519723000    11.027860000    19.716003000    1
     9.531299000    12.293520000    19.584894000    3
    18.143364000    22.140344000    18.058249000    3
    16.906145000    22.404966000    16.837271000    1
    16.859432000    21.176555000    15.940701000    2
    17.220337000    23.628229000    16.003615000    2
    14.713369000    22.905947000    17.709888000    1
    14.064034000    23.701684000    16.599776000    2
    13.545412000    21.586528000    18.015986000    3
    13.472506000    20.791650000    19.552737000    1
    12.110371000    20.168264000    19.638230000    2
    14.885335000    24.019475000    19.808047000    1
    16.138516000    24.829576000    19.941339000    2
    14.659587000    22.098887000    21.169734000    1
    15.958957000    21.320634000    21.280317000    2
    14.062222000    22.167320000    22.537088000    2
     7.825677000     4.772271000    21.065245000    3
     8.131146000     3.055528000    21.377612000    5
     6.836393000     2.174638000    21.188854000    3
     9.359268000     2.337501000    20.628276000    3
    13.411445000    24.958561000    19.991864000    3
    13.058118000    25.254694000    21.684193000    5
    12.319551000    26.653932000    21.811186000    3
    14.387137000    25.002067000    22.544309000    3
    12.029397000    23.664442000    21.865131000    3
     8.375244000     3.245537000    23.059034000    3
    12.596933000     3.667656000    26.188212000    1
    13.348964000     4.703163000    27.034577000    2
    12.134833000     2.560888000    27.117209000    2
    10.563731000     4.711659000    25.433836000    1
     9.745959000     4.602547000    26.703496000    2
    10.645754000     6.447553000    25.083936000    3
    10.981855000     6.984732000    23.451894000    1
     9.947534000     8.000837000    23.056607000    2
     9.810269000     3.608345000    23.461071000    1
    10.300796000     2.180704000    23.463001000    2
    11.056968000     5.058645000    22.047640000    1
    12.475447000     4.546540000    21.853862000    2
    10.460693000     5.415244000    20.700685000    2
    11.063418000    18.770424000    23.353040000    4
    12.648342000    19.638186000    23.396552000    1
    12.588644000    21.125025000    23.252416000    2
    14.139501000    18.767166000    23.433730000    4
    13.655140000    17.069348000    23.540383000    1
    14.336660000    14.910743000    23.424302000    1
    15.834794000    14.344213000    23.387363000    3
    12.868614000    13.846375000    23.440363000    4
    13.138104000    12.785788000    23.443051000    2
    11.102312000    14.157202000    23.434122000    1
    10.139347000    12.747256000    23.448400000    4
    10.487337000    11.672258000    23.414139000    2
     9.091078000    12.880336000    23.401966000    2
    10.313372000    15.694594000    23.436501000    4
    11.409617000    17.010024000    23.440169000    1
    12.606031000     7.965157000    23.441021000    4
    14.174892000     7.123133000    23.432099000    1
    13.920167000     5.660988000    23.235503000    2
    16.055452000     8.262915000    23.333407000    1
    17.423385000     7.666029000    23.473776000    2
    15.439357000    10.416878000    23.437165000    1
    16.576868000    11.709536000    23.438052000    4
    16.304657000    12.766955000    23.394628000    2
    17.603307000    11.485323000    23.387922000    2
    13.768515000    10.855022000    23.456115000    4
    12.448894000     9.754437000    23.457336000    1
    10.908520000    10.183603000    23.387786000    3
    11.192355000    22.776711000    20.767966000    1
    11.790268000    21.706676000    19.873372000    2
     9.122095000    22.021010000    21.720127000    1
     8.177606000    22.324673000    20.581561000    2
     8.973829000    20.246180000    21.945855000    3
     9.353134000    19.572679000    23.496892000    1
     8.531301000    18.334332000    23.726772000    2
     8.609218000    23.024513000    23.830771000    1
     9.231994000    24.402495000    23.981848000    2
     9.583856000    21.298304000    25.124106000    1
    11.085368000    21.372264000    25.340908000    2
     8.971265000    20.938376000    26.446532000    2
    13.726983000     3.064391000    25.002290000    3
    15.132916000     2.116599000    27.038674000    3
    14.921716000     1.796152000    25.312925000    5
    14.254438000     0.383337000    25.089769000    3
    16.270004000     2.027429000    24.497930000    3
     6.861370000    22.932931000    23.989292000    3
     6.437236000    23.040011000    25.741970000    5
     5.018193000    23.708730000    25.851964000    3
     7.734165000    23.537852000    26.526531000    3
    18.044379000     5.404824000    30.152410000    1
    18.038766000     6.709484000    30.954315000    2
    18.435390000     4.276122000    31.076018000    2
    15.771025000     4.982661000    29.470479000    1
    15.135521000     4.540722000    30.781894000    2
    14.958027000     6.534561000    29.165063000    3
    14.745252000     7.195663000    27.576445000    1
    13.288254000     7.404227000    27.286304000    2
    16.017940000     3.584091000    27.503885000    1
    17.475494000     3.191171000    27.575338000    2
    15.911155000     5.599800000    26.210872000    1
    17.335405000     6.101085000    26.020227000    2
    15.309569000     5.495385000    24.833359000    2
     7.978759000    16.819552000    27.515017000    4
     8.769873000    18.436343000    27.609200000    1
     7.845044000    19.605663000    27.609589000    2
    10.493454000    18.578691000    27.647366000    4
    11.075403000    16.906944000    27.643344000    1
    12.866796000    15.536686000    27.728949000    1
    14.426897000    15.904951000    27.722032000    3
    12.266950000    13.829699000    27.633124000    4
    13.109749000    13.131218000    27.638391000    2
    10.640546000    13.072693000    27.629059000    1
    10.677349000    11.375713000    27.728819000    4
    11.606880000    10.708783000    27.642411000    2
     9.756705000    10.872942000    27.638503000    2
     9.109022000    13.868065000    27.589452000    4
     9.269329000    15.575379000    27.632121000    1
    15.443295000     8.958591000    27.612178000    4
    17.216742000     9.171767000    27.662848000    1
    17.851709000     7.834619000    27.443256000    2
    18.144788000    11.167636000    27.538793000    1
    19.595757000    11.481224000    27.765241000    2
    16.403352000    12.582185000    27.677859000    1
    16.606447000    14.291551000    27.699235000    4
    15.762517000    14.984988000    27.714851000    2
    17.572515000    14.711342000    27.652642000    2
    14.781473000    11.976357000    27.689928000    4
    14.288038000    10.331713000    27.646468000    1
    12.758153000     9.835088000    27.552228000    3
     6.416910000    21.287109000    26.103744000    3
     5.718115000    20.208315000    24.903991000    1
     6.836214000    19.739331000    23.984794000    2
     4.657652000    20.917354000    24.089895000    2
     4.517366000    18.323975000    25.814033000    1
     3.523023000    17.979867000    24.727729000    2
     5.364541000    16.776883000    26.109809000    3
     6.120716000    16.444963000    27.631906000    1
     6.242671000    14.952256000    27.722918000    2
     3.576843000    18.877976000    27.930701000    1
     3.247112000    20.333369000    28.063379000    2
     5.334462000    18.016447000    29.258238000    1
     6.512264000    18.971853000    29.337284000    2
     5.096501000    17.486051000    30.634189000    2
    19.274346000     5.668025000    28.910383000    3
    20.998611000     5.369610000    29.185966000    5
    21.379399000     3.850636000    28.997018000    3
    22.076277000     6.273933000    28.407384000    3
     2.194855000    17.815207000    28.151285000    3
     1.833648000    17.593798000    29.853348000    5
     0.269439000    17.379066000    30.016492000    3
     2.544498000    18.760971000    30.691388000    3
    21.434223000     9.977341000    34.063576000    1
    20.687068000    11.042389000    34.854021000    2
    22.348905000     9.159379000    34.949622000    2
    19.857608000     8.274840000    33.391528000    1
    19.710485000     7.486221000    34.679613000    2
    18.216676000     8.879157000    33.075030000    3
    17.779423000     9.481674000    31.506545000    1
    16.466520000     8.887303000    31.101064000    2
    20.906604000     7.355999000    31.437165000    1
    22.353858000     7.765800000    31.473256000    2
    19.671382000     8.928601000    30.145202000    1
    20.504430000    10.182493000    29.931159000    2
    19.348918000     8.407793000    28.769430000    2
     6.753997000    13.256361000    31.440166000    4
     6.456700000    15.040828000    31.499046000    1
     5.023701000    15.460879000    31.438080000    2
     7.777177000    16.160344000    31.498132000    4
     9.222576000    15.141301000    31.367225000    1
    11.468693000    15.028032000    31.544762000    1
    12.492740000    16.252017000    31.546742000    3
    11.999484000    13.299942000    31.499798000    4
    13.088705000    13.229637000    31.524209000    2
    11.102081000    11.748946000    31.485700000    1
    12.098313000    10.373035000    31.546042000    4
    13.209954000    10.421832000    31.551080000    2
    11.650349000     9.418077000    31.530996000    2
     9.389833000    11.533238000    31.488551000    4
     8.528509000    13.005051000    31.422538000    1
    17.463278000    11.353307000    31.623404000    4
    18.788293000    12.568212000    31.625547000    1
    20.151005000    11.916329000    31.632876000    2
    18.357168000    14.721775000    31.598028000    1
    19.391111000    15.808015000    31.622068000    2
    16.110306000    14.886246000    31.574788000    1
    15.253450000    16.382287000    31.597396000    4
    14.165996000    16.425345000    31.548236000    2
    15.756198000    17.306298000    31.581316000    2
    15.157395000    13.443871000    31.575475000    4
    15.724888000    11.826550000    31.578567000    1
    14.779623000    10.529459000    31.546808000    3
     2.980071000    16.084220000    30.017042000    3
     2.951511000    14.801526000    28.833417000    1
     4.111524000    15.033321000    27.883330000    2
     1.663615000    14.765027000    28.046115000    2
     3.080427000    12.552902000    29.722969000    1
     2.466808000    11.732180000    28.605521000    2
     4.657181000    11.745719000    30.019237000    3
     5.428610000    11.903863000    31.559099000    1
     6.284087000    10.680711000    31.749255000    2
     1.978484000    12.457796000    31.846006000    1
     0.869442000    13.476494000    31.975682000    2
     3.906357000    12.724148000    33.186068000    1
     4.304248000    14.176088000    33.333882000    2
     4.043689000    12.010842000    34.509352000    2
    22.432690000    10.785358000    32.823982000    3
    23.941503000    11.404206000    33.171678000    5
    24.991014000    10.267757000    32.907628000    3
    24.197762000    12.694797000    32.315412000    3
    20.941083000     5.673227000    30.867446000    3
     1.489492000    10.788265000    32.058218000    3
     1.239278000    10.369352000    33.705736000    5
     0.000000000     9.402273000    33.841814000    3
     1.140223000    11.737850000    34.519268000    3
    21.992246000    16.344440000    38.057059000    1
    20.772980000    16.680630000    38.925692000    2
    23.202107000    16.271102000    38.969400000    2
    21.696578000    14.091585000    37.263232000    1
    22.094913000    13.336361000    38.513697000    2
    20.032885000    13.581602000    36.924812000    3
    19.392318000    13.744807000    35.303664000    1
    18.786013000    12.433080000    34.890981000    2
    22.965623000    13.798754000    35.268092000    1
    24.139485000    14.747861000    35.273115000    2
    21.158546000    14.500973000    33.890855000    1
    21.152392000    16.012484000    33.725982000    2
    21.010034000    13.844535000    32.532906000    2
     8.288470000     9.792276000    -4.228462000    4
     6.931834000    10.983674000    -4.144796000    1
     5.553253000    10.421799000    -4.282042000    2
     7.241057000    12.681815000    -4.079128000    4
     9.003388000    12.805426000    -3.992665000    1
    10.797318000    14.186233000    -4.105381000    1
    10.817086000    15.788198000    -4.111979000    3
    12.299510000    13.170749000    -4.127962000    4
    13.204029000    13.786634000    -4.125096000    2
    12.611135000    11.405124000    -4.171929000    1
    14.265380000    10.982392000    -4.186918000    4
    15.156133000    11.677661000    -4.219318000    2
    14.498066000     9.952918000    -4.256013000    2
    11.436205000    10.138041000    -4.178703000    4
     9.825444000    10.717972000    -4.143317000    1
    17.915701000    14.935587000    35.334456000    4
    18.170526000    16.697691000    35.355930000    1
    19.629019000    16.962230000    35.145650000    2
    16.455400000    18.076515000    35.305529000    1
    16.550472000    19.563153000    35.473119000    2
    14.643310000    16.758997000    35.407361000    1
    13.039805000    17.385541000    35.440763000    4
    12.138672000    16.768961000    35.397092000    2
    12.898979000    18.427520000    35.412330000    2
    14.802990000    15.039030000    35.391411000    4
    16.288286000    14.175661000    35.357108000    1
    16.410671000    12.583028000    35.255545000    3
     2.924636000     9.283506000    -5.649662000    3
     4.446682000     8.592519000    -6.787919000    1
     5.236320000     9.537325000    -7.674816000    2
     3.439213000     7.850582000    -7.654558000    2
     5.876674000     6.887806000    -5.886395000    1
     5.899604000     5.918347000    -7.044076000    2
     7.598008000     7.351243000    -5.673807000    3
     8.121087000     7.908330000    -4.118419000    1
     9.568603000     7.555382000    -3.913767000    2
     5.136063000     6.022421000    -3.782237000    1
     3.630260000     6.133321000    -3.609708000    2
     6.441537000     7.503800000    -2.476984000    1
     5.861550000     8.885027000    -2.226306000    2
     7.006095000     7.026122000    -1.170567000    2
    22.157640000    17.635100000    36.893362000    3
    22.593744000    19.241247000    38.955382000    3
    22.944949000    19.185388000    37.223610000    5
    24.497773000    19.045969000    36.977836000    3
    22.256296000    20.388561000    36.440208000    3
    23.590221000    12.209667000    34.813086000    3
     5.821622000     4.408622000    -3.663288000    3
     5.888436000     3.940051000    -1.919954000    5
     5.746543000     2.376045000    -1.837992000    3
     4.987344000     4.973249000    -1.103902000    3
    18.550471000    20.796309000     2.251419000    1
    17.336707000    20.329488000     3.060168000    2
    19.489252000    21.532071000     3.177300000    2
    19.715539000    18.817920000     1.516584000    1
    20.364852000    18.346976000     2.811030000    2
    18.531259000    17.529151000     1.201639000    3
    17.960487000    17.129581000     0.012315000    1
    18.258839000    15.694945000    39.190867000    2
    20.918209000    19.561913000    39.448310000    1
    20.790099000    21.064303000     0.050125000    2
    19.044042000    18.796854000    38.164350000    1
    18.083699000    19.967117000    38.008316000    2
    19.330155000    18.293689000    36.773195000    2
    11.229401000     7.482016000    -0.147201000    4
     9.440924000     7.670477000    -0.026477000    1
     8.658287000     6.401656000    -0.040301000    2
     8.718474000     9.240357000     0.050947000    4
    10.090389000    10.358958000     0.050717000    1
    10.766723000    12.508996000     0.168754000    1
     9.887291000    13.848879000     0.198701000    3
    12.574553000    12.531113000     0.050164000    4
    12.942868000    13.561718000     0.070403000    2
    13.841799000    11.262109000     0.005618000    1
    15.425102000    11.875196000     0.096831000    4
    15.732947000    12.978246000     0.027529000    2
    16.211092000    11.183942000    -0.016785000    2
    13.617426000     9.551966000    -0.063796000    4
    11.958858000     9.117808000    -0.008160000    1
    16.065754000    17.181734000     0.073330000    4
    15.259864000    18.773999000     0.164758000    1
    16.296480000    19.832084000    39.452040000    2
    13.065573000    18.965618000     0.072444000    1
    12.277814000    20.217216000     0.332956000    2
    12.333421000    16.843075000     0.180378000    1
    10.658024000    16.448820000     0.215693000    4
    10.295104000    15.418478000     0.216279000    2
     9.932727000    17.213745000     0.192994000    2
    13.457268000    15.526307000     0.152895000    4
    15.170813000    15.626073000     0.089375000    1
    16.159237000    14.360413000    39.458266000    3
     7.547172000     4.513588000    -1.568379000    3
     8.784391000     4.248967000    -2.789356000    1
     8.831104000     5.477378000    -3.685927000    2