SystemLabel      periodic

NumberOfAtoms    698

NumberOfSpecies  5
%block ChemicalSpeciesLabel
    1   14  Si
    2    1  H
    3    8  O
    4    7  N
    5   15  P
%endblock ChemicalSpeciesLabel

#%block LatticeVectors
#  100.00  0.00  0.00
#  0.00  100.00  0.00
#  0.00  0.00  48.00
#%endblock LatticeVectors

AtomicCoordinatesFormat NotScaledCartesianAng
%block AtomicCoordinatesAndAtomicSpecies
13.093603 22.986277 6.314840 1
12.341572 21.950769 7.161204 2
13.555703 24.093045 7.243837 2
15.126805 21.942274 5.560464 1
15.944577 22.051386 6.830124 2
15.044782 20.206380 5.210563 3
14.708681 19.669201 3.578522 1
15.743002 18.653096 3.183235 2
15.880267 23.045588 3.587698 1
15.389740 24.473229 3.589629 2
14.633568 21.595287 2.174267 1
13.215089 22.107392 1.980490 2
15.229843 21.238689 0.827313 2
14.627118 7.883509 3.479668 4
13.042194 7.015747 3.523179 1
13.101892 5.528908 3.379044 2
11.551035 7.886767 3.560358 4
12.035396 9.584585 3.667011 1
11.353876 11.743189 3.550930 1
9.855742 12.309719 3.513990 3
12.821922 12.807558 3.566991 4
12.552432 13.868145 3.569679 2
14.588224 12.496731 3.560750 1
15.551189 13.906677 3.575028 4
15.203199 14.981674 3.540766 2
16.599458 13.773597 3.528593 2
15.377164 10.959339 3.563129 4
14.280919 9.643909 3.566796 1
13.084505 18.688776 3.567649 4
11.515644 19.530800 3.558726 1
11.770369 20.992945 3.362131 2
9.635084 18.391017 3.460035 1
8.267151 18.987904 3.600404 2
10.251179 16.237055 3.563793 1
9.113668 14.944396 3.564680 4
9.385879 13.886978 3.521255 2
8.087229 15.168609 3.514550 2
11.922021 15.798911 3.582743 4
13.241642 16.899496 3.583964 1
14.782016 16.470330 3.514414 3
13.286474 3.374988 2.067121 3
14.498181 3.877221 0.894594 1
13.900268 4.947257 -0.000000 2
14.870192 2.681536 0.029450 2
16.568441 4.632923 1.846755 1
17.512930 4.329260 0.708189 2
16.716707 6.407753 2.072483 3
16.337402 7.081254 3.623520 1
17.159235 8.319601 3.853400 2
17.081318 3.629420 3.957398 1
16.458542 2.251438 4.108476 2
16.106680 5.355629 5.250734 1
14.605168 5.281669 5.467536 2
16.719271 5.715557 6.573160 2
11.963553 23.589542 5.128918 3
10.557620 24.537334 7.165302 3
10.768820 24.857781 5.439553 5
11.436098 26.270595 5.216397 3
9.420532 24.626504 4.624558 3
17.596704 22.980469 3.258758 3
18.829166 3.721001 4.115919 3
19.253300 3.613922 5.868598 5
20.672343 2.945203 5.978592 3
17.956371 3.116081 6.653159 3
12.494793 2.940723 1.644669 2
17.865645 23.565215 2.497557 2
7.646157 21.249109 10.279038 1
7.651770 19.944449 11.080943 2
7.255146 22.377811 11.202646 2
9.919511 21.671271 9.597107 1
10.555015 22.113211 10.908522 2
10.732509 20.119372 9.291690 3
10.945284 19.458270 7.703072 1
12.402282 19.249706 7.412931 2
9.672596 23.069842 7.630513 1
8.215042 23.462762 7.701966 2
9.779381 21.054133 6.337499 1
8.355131 20.552847 6.146855 2
10.380967 21.158547 4.959987 2
17.711777 9.834381 7.641644 4
16.920663 8.217590 7.735828 1
17.845492 7.048270 7.736217 2
15.197082 8.075241 7.773994 4
14.615133 9.746989 7.769972 1
12.823740 11.117247 7.855576 1
11.263639 10.748982 7.848660 3
13.423586 12.824234 7.759752 4
12.580787 13.522715 7.765019 2
15.049990 13.581240 7.755687 1
15.013187 15.278220 7.855447 4
14.083656 15.945150 7.769038 2
15.933831 15.780990 7.765131 2
16.581514 12.785867 7.716080 4
16.421207 11.078554 7.758749 1
10.247241 17.695342 7.738806 4
8.473794 17.482166 7.789476 1
7.838827 18.819313 7.569883 2
7.545748 15.486297 7.665420 1
6.094779 15.172709 7.891868 2
9.287184 14.071748 7.804487 1
9.084089 12.362381 7.825863 4
9.928019 11.668945 7.841479 2
8.118021 11.942590 7.779270 2
10.909063 14.677576 7.816556 4
11.402498 16.322220 7.773096 1
12.932383 16.818845 7.678856 3
19.273626 5.366824 6.230372 3
19.972421 6.445618 5.030619 1
18.854322 6.914601 4.111422 2
21.032884 5.736578 4.216522 2
21.173170 8.329958 5.940660 1
22.167513 8.674066 4.854356 2
20.325995 9.877050 6.236437 3
19.569820 10.208969 7.758534 1
19.447865 11.701676 7.849546 2
22.113693 7.775957 8.057329 1
22.443424 6.320564 8.190006 2
20.356074 8.637486 9.384866 1
19.178272 7.682079 9.463912 2
20.594035 9.167881 10.760817 2
6.416190 20.985908 9.037010 3
4.691925 21.284323 9.312594 5
4.311137 22.803297 9.123646 3
3.614259 20.380000 8.534012 3
23.495681 8.838725 8.277912 3
23.856888 9.060135 9.979976 5
25.421097 9.274867 10.143120 3
23.146038 7.892962 10.818015 3
4.256313 16.676592 14.190203 1
5.003468 15.611543 14.980648 2
3.341631 17.494554 15.076249 2
5.832928 18.379093 13.518156 1
5.980051 19.167712 14.806241 2
7.473860 17.774776 13.201657 3
7.911113 17.172259 11.633173 1
9.224016 17.766630 11.227691 2
4.783932 19.297934 11.563792 1
3.336678 18.888133 11.599883 2
6.019154 17.725331 10.271829 1
5.186106 16.471440 10.057787 2
6.341618 18.246140 8.896058 2
18.936539 13.397571 11.566793 4
19.233836 11.613105 11.625673 1
20.666835 11.193054 11.564707 2
17.913359 10.493589 11.624760 4
16.467960 11.512631 11.493852 1
14.221843 11.625901 11.671390 1
13.197796 10.401916 11.673370 3
13.691052 13.353991 11.626425 4
12.601831 13.424296 11.650837 2
14.588455 14.904986 11.612328 1
13.592223 16.280898 11.672670 4
12.480582 16.232101 11.677708 2
14.040187 17.235856 11.657624 2
16.300703 15.120694 11.615179 4
17.162027 13.648882 11.549165 1
8.227258 15.300625 11.750032 4
6.902243 14.085720 11.752175 1
5.539531 14.737603 11.759503 2
7.333368 11.932158 11.724656 1
6.299425 10.845918 11.748695 2
9.580230 11.767687 11.701416 1
10.437086 10.271645 11.724024 4
11.524540 10.228588 11.674864 2
9.934338 9.347635 11.707944 2
10.533141 13.210062 11.702103 4
9.965648 14.827383 11.705195 1
10.910913 16.124474 11.673436 3
22.710465 10.569713 10.143670 3
22.739025 11.852407 8.960044 1
21.579012 11.620612 8.009958 2
24.026921 11.888906 8.172743 2
22.610109 14.101031 9.849597 1
23.223728 14.921753 8.732149 2
21.033355 14.908214 10.145865 3
20.261926 14.750070 11.685726 1
19.406449 15.973222 11.875883 2
23.712052 14.196136 11.972634 1
24.821094 13.177439 12.102309 2
21.784179 13.929785 13.312696 1
21.386288 12.477845 13.460510 2
21.646847 14.643090 14.635980 2
3.257846 15.868575 12.950610 3
1.749033 15.249727 13.298306 5
0.699522 16.386176 13.034256 3
1.492774 13.959135 12.442040 3
4.749453 20.980706 10.994074 3
24.201044 15.865668 12.184845 3
24.451258 16.284581 13.832364 5
25.690536 17.251660 13.968442 3
24.550313 14.916083 14.645896 3
3.698290 10.309493 18.183687 1
4.917556 9.973303 19.052320 2
2.488429 10.382831 19.096028 2
3.993958 12.562348 17.389860 1
3.595623 13.317571 18.640325 2
5.657651 13.072331 17.051440 3
6.298218 12.909126 15.430292 1
6.904523 14.220853 15.017609 2
2.724913 12.855178 15.394719 1
1.551051 11.906072 15.399743 2
4.531990 12.152960 14.017483 1
4.538144 10.641449 13.852610 2
4.680502 12.809398 12.659534 2
17.402066 16.861657 15.398166 4
18.758702 15.670259 15.481831 1
20.137283 16.232134 15.344586 2
18.449479 13.972118 15.547500 4
16.687148 13.848507 15.633963 1
14.893218 12.467700 15.521247 1
14.873450 10.865735 15.514649 3
13.391026 13.483184 15.498665 4
12.486507 12.867299 15.501531 2
13.079401 15.248809 15.454699 1
11.425156 15.671541 15.439710 4
10.534403 14.976272 15.407310 2
11.192470 16.701015 15.370615 2
14.254331 16.515892 15.447925 4
15.865092 15.935960 15.483310 1
7.774835 11.718346 15.461084 4
7.520010 9.956242 15.482558 1
6.061517 9.691703 15.272278 2
9.235136 8.577417 15.432157 1
9.140064 7.090779 15.599746 2
11.047226 9.894935 15.533989 1
12.650731 9.268392 15.567390 4
13.551864 9.884971 15.523720 2
12.791557 8.226413 15.538958 2
10.887546 11.614903 15.518039 4
9.402250 12.478272 15.483736 1
9.279865 14.070905 15.382173 3
22.765900 17.370427 13.976966 3
21.243854 18.061414 12.838709 1
20.454216 17.116608 11.951811 2
22.251323 18.803351 11.972070 2
19.813862 19.766127 13.740233 1
19.790932 20.735586 12.582551 2
18.092528 19.302690 13.952820 3
17.569449 18.745603 15.508208 1
16.121933 19.098551 15.712861 2
20.554473 20.631512 15.844391 1
22.060276 20.520612 16.016920 2
19.248999 19.150133 17.149644 1
19.828986 17.768906 17.400321 2
18.684441 19.627811 18.456061 2
3.532896 9.018832 17.019990 3
3.096792 7.412685 19.082010 3
2.745587 7.468545 17.350238 5
1.192763 7.607964 17.104464 3
3.434240 6.265372 16.566835 3
2.100314 14.444266 14.939714 3
19.868914 22.245311 15.963340 3
19.802100 22.713882 17.706674 5
19.943993 24.277888 17.788636 3
20.703192 21.680684 18.522726 3
7.142002 5.861518 22.278032 1
8.355766 6.328340 23.086781 2
6.203221 5.125757 23.203913 2
5.976933 7.839908 21.543197 1
5.327621 8.310852 22.837643 2
7.161214 9.128677 21.228252 3
7.730049 9.524352 19.638943 1
7.431697 10.958988 19.317494 2
4.772327 7.092020 19.574937 1
4.900437 5.589629 19.676753 2
6.646494 7.857079 18.290978 1
7.606837 6.686816 18.134944 2
6.360381 8.360244 16.899822 2
14.461135 19.171916 19.479427 4
16.249612 18.983456 19.600151 1
17.032249 20.252277 19.586326 2
16.972062 17.413576 19.677574 4
15.600147 16.294974 19.677345 1
14.923813 14.144937 19.795381 1
15.803245 12.805054 19.825328 3
13.115983 14.122820 19.676792 4
12.747668 13.092214 19.697030 2
11.848737 15.391824 19.632246 1
10.265434 14.778737 19.723459 4
9.957589 13.675687 19.654157 2
9.479444 15.469990 19.609843 2
12.073110 17.101967 19.562831 4
13.731678 17.536125 19.618467 1
9.624782 9.472199 19.699958 4
10.430672 7.879934 19.791386 1
9.394056 6.821849 19.578668 2
12.624963 7.688314 19.699072 1
13.412722 6.436717 19.959584 2
13.357115 9.810858 19.807006 1
15.032511 10.205113 19.842321 4
15.395432 11.235454 19.842907 2
15.757809 9.440187 19.819622 2
12.233268 11.127626 19.779523 4
10.519723 11.027860 19.716003 1
9.531299 12.293520 19.584894 3
18.143364 22.140344 18.058249 3
16.906145 22.404966 16.837271 1
16.859432 21.176555 15.940701 2
17.220337 23.628229 16.003615 2
14.713369 22.905947 17.709888 1
14.064034 23.701684 16.599776 2
13.545412 21.586528 18.015986 3
13.472506 20.791650 19.552737 1
12.110371 20.168264 19.638230 2
14.885335 24.019475 19.808047 1
16.138516 24.829576 19.941339 2
14.659587 22.098887 21.169734 1
15.958957 21.320634 21.280317 2
14.062222 22.167320 22.537088 2
7.825677 4.772271 21.065245 3
8.131146 3.055528 21.377612 5
6.836393 2.174638 21.188854 3
9.359268 2.337501 20.628276 3
13.411445 24.958561 19.991864 3
13.058118 25.254694 21.684193 5
12.319551 26.653932 21.811186 3
14.387137 25.002067 22.544309 3
12.029397 23.664442 21.865131 3
8.375244 3.245537 23.059034 3
12.596933 3.667656 26.188212 1
13.348964 4.703163 27.034577 2
12.134833 2.560888 27.117209 2
10.563731 4.711659 25.433836 1
9.745959 4.602547 26.703496 2
10.645754 6.447553 25.083936 3
10.981855 6.984732 23.451894 1
9.947534 8.000837 23.056607 2
9.810269 3.608345 23.461071 1
10.300796 2.180704 23.463001 2
11.056968 5.058645 22.047640 1
12.475447 4.546540 21.853862 2
10.460693 5.415244 20.700685 2
11.063418 18.770424 23.353040 4
12.648342 19.638186 23.396552 1
12.588644 21.125025 23.252416 2
14.139501 18.767166 23.433730 4
13.655140 17.069348 23.540383 1
14.336660 14.910743 23.424302 1
15.834794 14.344213 23.387363 3
12.868614 13.846375 23.440363 4
13.138104 12.785788 23.443051 2
11.102312 14.157202 23.434122 1
10.139347 12.747256 23.448400 4
10.487337 11.672258 23.414139 2
9.091078 12.880336 23.401966 2
10.313372 15.694594 23.436501 4
11.409617 17.010024 23.440169 1
12.606031 7.965157 23.441021 4
14.174892 7.123133 23.432099 1
13.920167 5.660988 23.235503 2
16.055452 8.262915 23.333407 1
17.423385 7.666029 23.473776 2
15.439357 10.416878 23.437165 1
16.576868 11.709536 23.438052 4
16.304657 12.766955 23.394628 2
17.603307 11.485323 23.387922 2
13.768515 10.855022 23.456115 4
12.448894 9.754437 23.457336 1
10.908520 10.183603 23.387786 3
11.192355 22.776711 20.767966 1
11.790268 21.706676 19.873372 2
9.122095 22.021010 21.720127 1
8.177606 22.324673 20.581561 2
8.973829 20.246180 21.945855 3
9.353134 19.572679 23.496892 1
8.531301 18.334332 23.726772 2
8.609218 23.024513 23.830771 1
9.231994 24.402495 23.981848 2
9.583856 21.298304 25.124106 1
11.085368 21.372264 25.340908 2
8.971265 20.938376 26.446532 2
13.726983 3.064391 25.002290 3
15.132916 2.116599 27.038674 3
14.921716 1.796152 25.312925 5
14.254438 0.383337 25.089769 3
16.270004 2.027429 24.497930 3
6.861370 22.932931 23.989292 3
6.437236 23.040011 25.741970 5
5.018193 23.708730 25.851964 3
7.734165 23.537852 26.526531 3
18.044379 5.404824 30.152410 1
18.038766 6.709484 30.954315 2
18.435390 4.276122 31.076018 2
15.771025 4.982661 29.470479 1
15.135521 4.540722 30.781894 2
14.958027 6.534561 29.165063 3
14.745252 7.195663 27.576445 1
13.288254 7.404227 27.286304 2
16.017940 3.584091 27.503885 1
17.475494 3.191171 27.575338 2
15.911155 5.599800 26.210872 1
17.335405 6.101085 26.020227 2
15.309569 5.495385 24.833359 2
7.978759 16.819552 27.515017 4
8.769873 18.436343 27.609200 1
7.845044 19.605663 27.609589 2
10.493454 18.578691 27.647366 4
11.075403 16.906944 27.643344 1
12.866796 15.536686 27.728949 1
14.426897 15.904951 27.722032 3
12.266950 13.829699 27.633124 4
13.109749 13.131218 27.638391 2
10.640546 13.072693 27.629059 1
10.677349 11.375713 27.728819 4
11.606880 10.708783 27.642411 2
9.756705 10.872942 27.638503 2
9.109022 13.868065 27.589452 4
9.269329 15.575379 27.632121 1
15.443295 8.958591 27.612178 4
17.216742 9.171767 27.662848 1
17.851709 7.834619 27.443256 2
18.144788 11.167636 27.538793 1
19.595757 11.481224 27.765241 2
16.403352 12.582185 27.677859 1
16.606447 14.291551 27.699235 4
15.762517 14.984988 27.714851 2
17.572515 14.711342 27.652642 2
14.781473 11.976357 27.689928 4
14.288038 10.331713 27.646468 1
12.758153 9.835088 27.552228 3
6.416910 21.287109 26.103744 3
5.718115 20.208315 24.903991 1
6.836214 19.739331 23.984794 2
4.657652 20.917354 24.089895 2
4.517366 18.323975 25.814033 1
3.523023 17.979867 24.727729 2
5.364541 16.776883 26.109809 3
6.120716 16.444963 27.631906 1
6.242671 14.952256 27.722918 2
3.576843 18.877976 27.930701 1
3.247112 20.333369 28.063379 2
5.334462 18.016447 29.258238 1
6.512264 18.971853 29.337284 2
5.096501 17.486051 30.634189 2
19.274346 5.668025 28.910383 3
20.998611 5.369610 29.185966 5
21.379399 3.850636 28.997018 3
22.076277 6.273933 28.407384 3
2.194855 17.815207 28.151285 3
1.833648 17.593798 29.853348 5
0.269439 17.379066 30.016492 3
2.544498 18.760971 30.691388 3
21.434223 9.977341 34.063576 1
20.687068 11.042389 34.854021 2
22.348905 9.159379 34.949622 2
19.857608 8.274840 33.391528 1
19.710485 7.486221 34.679613 2
18.216676 8.879157 33.075030 3
17.779423 9.481674 31.506545 1
16.466520 8.887303 31.101064 2
20.906604 7.355999 31.437165 1
22.353858 7.765800 31.473256 2
19.671382 8.928601 30.145202 1
20.504430 10.182493 29.931159 2
19.348918 8.407793 28.769430 2
6.753997 13.256361 31.440166 4
6.456700 15.040828 31.499046 1
5.023701 15.460879 31.438080 2
7.777177 16.160344 31.498132 4
9.222576 15.141301 31.367225 1
11.468693 15.028032 31.544762 1
12.492740 16.252017 31.546742 3
11.999484 13.299942 31.499798 4
13.088705 13.229637 31.524209 2
11.102081 11.748946 31.485700 1
12.098313 10.373035 31.546042 4
13.209954 10.421832 31.551080 2
11.650349 9.418077 31.530996 2
9.389833 11.533238 31.488551 4
8.528509 13.005051 31.422538 1
17.463278 11.353307 31.623404 4
18.788293 12.568212 31.625547 1
20.151005 11.916329 31.632876 2
18.357168 14.721775 31.598028 1
19.391111 15.808015 31.622068 2
16.110306 14.886246 31.574788 1
15.253450 16.382287 31.597396 4
14.165996 16.425345 31.548236 2
15.756198 17.306298 31.581316 2
15.157395 13.443871 31.575475 4
15.724888 11.826550 31.578567 1
14.779623 10.529459 31.546808 3
2.980071 16.084220 30.017042 3
2.951511 14.801526 28.833417 1
4.111524 15.033321 27.883330 2
1.663615 14.765027 28.046115 2
3.080427 12.552902 29.722969 1
2.466808 11.732180 28.605521 2
4.657181 11.745719 30.019237 3
5.428610 11.903863 31.559099 1
6.284087 10.680711 31.749255 2
1.978484 12.457796 31.846006 1
0.869442 13.476494 31.975682 2
3.906357 12.724148 33.186068 1
4.304248 14.176088 33.333882 2
4.043689 12.010842 34.509352 2
22.432690 10.785358 32.823982 3
23.941503 11.404206 33.171678 5
24.991014 10.267757 32.907628 3
24.197762 12.694797 32.315412 3
20.941083 5.673227 30.867446 3
1.489492 10.788265 32.058218 3
1.239278 10.369352 33.705736 5
-0.000000 9.402273 33.841814 3
1.140223 11.737850 34.519268 3
21.992246 16.344440 38.057059 1
20.772980 16.680630 38.925692 2
23.202107 16.271102 38.969400 2
21.696578 14.091585 37.263232 1
22.094913 13.336361 38.513697 2
20.032885 13.581602 36.924812 3
19.392318 13.744807 35.303664 1
18.786013 12.433080 34.890981 2
22.965623 13.798754 35.268092 1
24.139485 14.747861 35.273115 2
21.158546 14.500973 33.890855 1
21.152392 16.012484 33.725982 2
21.010034 13.844535 32.532906 2
8.288470 9.792276 35.271538 4
6.931834 10.983674 35.355204 1
5.553253 10.421799 35.217958 2
7.241057 12.681815 35.420872 4
9.003388 12.805426 35.507335 1
10.797318 14.186233 35.394619 1
10.817086 15.788198 35.388021 3
12.299510 13.170749 35.372038 4
13.204029 13.786634 35.374904 2
12.611135 11.405124 35.328071 1
14.265380 10.982392 35.313082 4
15.156133 11.677661 35.280682 2
14.498066 9.952918 35.243987 2
11.436205 10.138041 35.321297 4
9.825444 10.717972 35.356683 1
17.915701 14.935587 35.334456 4
18.170526 16.697691 35.355930 1
19.629019 16.962230 35.145650 2
16.455400 18.076515 35.305529 1
16.550472 19.563153 35.473119 2
14.643310 16.758997 35.407361 1
13.039805 17.385541 35.440763 4
12.138672 16.768961 35.397092 2
12.898979 18.427520 35.412330 2
14.802990 15.039030 35.391411 4
16.288286 14.175661 35.357108 1
16.410671 12.583028 35.255545 3
2.924636 9.283506 33.850338 3
4.446682 8.592519 32.712081 1
5.236320 9.537325 31.825184 2
3.439213 7.850582 31.845442 2
5.876674 6.887806 33.613605 1
5.899604 5.918347 32.455924 2
7.598008 7.351243 33.826193 3
8.121087 7.908330 35.381581 1
9.568603 7.555382 35.586233 2
5.136063 6.022421 35.717763 1
3.630260 6.133321 35.890292 2
6.441537 7.503800 37.023016 1
5.861550 8.885027 37.273694 2
7.006095 7.026122 38.329433 2
22.157640 17.635100 36.893362 3
22.593744 19.241247 38.955382 3
22.944949 19.185388 37.223610 5
24.497773 19.045969 36.977836 3
22.256296 20.388561 36.440208 3
23.590221 12.209667 34.813086 3
5.821622 4.408622 35.836712 3
5.888436 3.940051 37.580046 5
5.746543 2.376045 37.662008 3
4.987344 4.973249 38.396098 3
18.548534 20.792414 42.151404 1
17.334770 20.325593 42.960153 2
19.487315 21.528175 43.077285 2
19.713603 18.814025 41.416570 1
20.362915 18.343081 42.711015 2
18.529322 17.525256 41.101624 3
17.960487 17.129581 39.512315 1
18.258839 15.694945 39.190867 2
20.918209 19.561913 39.448310 1
20.790099 21.064303 39.550125 2
19.044042 18.796854 38.164350 1
18.083699 19.967117 38.008316 2
19.330155 18.293689 36.773195 2
11.229401 7.482016 39.352799 4
9.440924 7.670477 39.473523 1
8.658287 6.401656 39.459699 2
8.718474 9.240357 39.550947 4
10.090389 10.358958 39.550717 1
10.766723 12.508996 39.668754 1
9.887291 13.848879 39.698701 3
12.574553 12.531113 39.550164 4
12.942868 13.561718 39.570403 2
13.841799 11.262109 39.505618 1
15.425102 11.875196 39.596831 4
15.732947 12.978246 39.527529 2
16.211092 11.183942 39.483215 2
13.617426 9.551966 39.436204 4
11.958858 9.117808 39.491840 1
16.065754 17.181734 39.573330 4
15.259864 18.773999 39.664758 1
16.296480 19.832084 39.452040 2
13.065573 18.965618 39.572444 1
12.277814 20.217216 39.832956 2
12.333421 16.843075 39.680378 1
10.658024 16.448820 39.715693 4
10.295104 15.418478 39.716279 2
9.932727 17.213745 39.692994 2
13.457268 15.526307 39.652895 4
15.170813 15.626073 39.589375 1
16.159237 14.360413 39.458266 3
7.547172 4.513588 37.931621 3
8.784391 4.248967 36.710644 1
8.831104 5.477378 35.814073 2
8.470199 3.025703 35.876988 2
10.977167 3.747986 37.583261 1
11.626502 2.952248 36.473148 2
12.145124 5.067404 37.889358 3
12.218030 5.862282 39.426109 1
13.580165 6.485668 39.511602 2
10.805201 2.634458 39.681419 1
9.552020 1.824357 39.814711 2
11.030949 4.555045 41.043107 1
9.731579 5.333299 41.153689 2
11.628314 4.486613 42.410460 2
17.864859 21.881662 40.938617 3
17.559390 23.598404 41.250984 5
18.854143 24.479295 41.062227 3
16.331268 24.316432 40.501649 3
12.279091 1.695371 39.865236 3
12.632418 1.399239 41.557566 5
13.370985 0.000000 41.684558 3
11.303399 1.651866 42.417681 3
13.143199 22.338523 46.162396 1
12.407928 21.257200 46.941813 2
13.610496 23.460706 47.064128 2
15.273324 21.452441 45.445951 1
16.081159 21.559348 46.726069 2
15.262335 19.710144 45.096224 3
14.825543 19.123225 43.521708 1
15.827658 18.100796 43.083747 2
15.753120 22.789565 43.510468 1
14.873784 24.008401 43.581120 2
14.681079 21.115880 42.199924 1
13.215325 21.473746 42.011441 2
15.263076 21.017334 40.814449 2
15.046578 7.475105 43.229948 4
13.472142 6.584333 43.291998 1
13.566498 5.095531 43.201364 2
11.968768 7.442025 43.326731 4
12.430573 9.151012 43.222522 1
11.771486 11.296580 43.449541 1
10.271312 11.839991 43.481123 3
13.213308 12.387171 43.406927 4
12.907352 13.434069 43.455265 2
14.977319 12.074819 43.364257 1
15.930453 13.480224 43.439253 4
15.504669 14.507819 43.469379 2
16.980738 13.386275 43.408952 2
15.765353 10.539895 43.327688 4
14.675914 9.228543 43.250563 1
13.176385 18.183824 43.641780 4
11.581864 19.013096 43.680196 1
11.728695 20.516180 43.714361 2
9.705239 17.872001 43.654913 1
8.331400 18.471401 43.708013 2
10.318445 15.705275 43.582417 1
9.205846 14.388141 43.594123 4
9.536485 13.352695 43.520932 2
8.165516 14.544739 43.594359 2
11.999552 15.303340 43.553887 4
13.325356 16.389609 43.560746 1
14.866915 15.945786 43.500748 3
9.821425 23.718521 47.197505 2
13.661139 2.989491 41.738504 3
14.861055 3.423984 40.547492 1
14.234542 4.452676 39.624834 2
15.325513 2.241532 39.731441 2
16.941353 4.297204 41.427309 1
17.908006 4.022765 40.291938 2
17.164649 6.048978 41.754261 3
16.772069 6.690233 43.311811 1
17.631437 7.908670 43.514285 2
17.434596 3.253914 43.524657 1
16.858121 1.861074 43.635143 2
16.542465 4.948448 44.908877 1
15.043998 4.822835 45.073528 2
17.182745 5.296167 46.230950 2
12.026739 23.023888 44.949873 3
10.779096 23.932517 47.018614 3
10.933915 24.223106 45.334572 5
11.639666 25.602859 45.087769 3
9.622615 24.038795 44.491360 3
17.315292 23.408396 42.932406 3
19.173282 3.361483 43.716703 3
19.673557 3.238222 45.355893 5
21.007665 2.402096 45.458940 3
18.431897 2.661557 46.174532 3
19.809342 4.945929 45.691569 3
20.615608 5.254542 45.183356 2
%endblock AtomicCoordinatesAndAtomicSpecies

%include defaults.fdf
