# mpirun -np 4 siesta-4.1.5 < AT.fdf > AT.out &

SystemLabel      AT

NumberOfAtoms    30

NumberOfSpecies  4
%block ChemicalSpeciesLabel
    1    1  H
    2    7  N
    3   14  Si
    4    8  O
%endblock ChemicalSpeciesLabel

############################################
# This overrides Defaults.fdf configuration
############################################
MD.TypeOfRun                Verlet # CG, Verlet
MD.Steps                    0
MaxSCFIterations            200
SCF.MustConverge            F

AtomicCoordinatesFormat NotScaledCartesianAng
%block AtomicCoordinatesAndAtomicSpecies
    2.28494382 -5.19529124 0.0  1  1  H
    1.37433094 -4.6647107 0.0  2  2  N
    -0.21830245 -5.49458215 0.0  3  3  Si
    -0.17484108 -6.98516892 0.0  1  4  H
    -1.66171682 -4.58600741 0.0  2  5  N
    -1.09026419 -2.87456374 0.0  3  6  Si
    -1.53038332 -0.70765692 0.0  3  7  Si
    -3.14415959 -0.09186471 0.0  2  8  N
    -3.40268075 0.95848335 0.0  1  9  H
    -3.95073599 -0.76720972 0.0  1  10  H
    -0.17836637 0.41349951 0.0  2  11  N
    1.49520211 -0.0473996 0.0  3  12  Si
    2.45603905 1.10727302 0.0  1  13  H
    2.30451743 -1.58574382 0.0  2  14  N
    1.10725559 -2.84610319 0.0  3  15  Si
    0.35920020268819836 9.060499383053205 0.0  1  16  H
    -0.44951047731180166 8.368293503053204 0.0  2  17  N
    -2.106100317311802 9.081413603053205 0.0  3  18  Si
    -2.0092351473118018 10.592138813053204 0.0  1  19  H
    -3.8322566673118015 7.7383654730532045 0.0  3  20  Si
    -6.186710917311802 7.730378543053205 0.0  3  21  Si
    -6.7491290373118025 8.464868193053205 -1.20183078  1  22  H
    -6.486524667311802 6.251287413053205 -0.08618332  1  23  H
    -6.749241497311802 8.295211003053204 1.28814761  1  24  H
    -2.9028660273118017 5.667794243053205 0.0  3  25  Si
    -3.8523343873118017 4.379258113053204 0.0  4  26  O
    -1.1119211573118017 5.4940587730532044 0.0  2  27  N
    -0.7809297973118017 4.461701793053205 0.0  1  28  H
    0.19653706268819832 6.6886051930532044 0.0  3  29  Si
    1.7624739926881983 6.421358343053205 0.0  4  30  O
%endblock AtomicCoordinatesAndAtomicSpecies

#############
# Unit Cell
#############
LatticeConstant 1.0 Ang
%block LatticeVectors
    30.00000    0.000000    0.000000
    0.000000    45.00000    0.000000
    0.000000    0.000000    10.00000
%endblock LatticeVectors

%include ../../../../Defaults.fdf
