# mpirun -np 6 siesta-4.1.5 < AT.fdf > AT.out &

SystemLabel      AT

NumberOfAtoms    30

NumberOfSpecies  4
%block ChemicalSpeciesLabel
    1    1  H
    2    7  N
    3   14  Si
    4    8  O
%endblock ChemicalSpeciesLabel

###################################
# This overrides Defaults.fdf conf
###################################
MD.TypeOfRun                CG # CG, Verlet
MD.Steps                    400

AtomicCoordinatesFormat NotScaledCartesianAng
%block AtomicCoordinatesAndAtomicSpecies
    17.242291520    11.438884040     0.000000000    1
    16.314673100    11.946352510     0.000000000    2
    14.723042700    11.114009900     0.000000000    3
    14.779137100     9.618864990     0.000000000    1
    13.283021810    12.033110750     0.000000000    2
    13.835541960    13.754848040     0.000000000    3
    13.489342380    15.945712390     0.000000000    3
    11.952980190    16.798198710     0.000000000    2
    11.905344200    17.850573110     0.000000000    1
    11.022238220    16.305746630     0.000000000    1
    14.878005650    16.981520520     0.000000000    2
    16.531917950    16.518552190     0.000000000    3
    17.487914990    17.677179260     0.000000000    1
    17.308063940    14.960690030     0.000000000    2
    16.051835250    13.760987270     0.000000000    3
    15.662910110    23.244123140     0.000000000    2
    14.067543760    24.069541700     0.000000000    3
    14.333402440    25.550118660     0.000000000    1
    12.226414170    22.882027380     0.000000000    3
     9.973511640    23.448346330     0.000000000    3
     9.822202280    24.608961820     0.940305280    1
     9.285664360    22.206068130     0.512613700    1
     9.448222550    23.800620820    -1.366678340    1
    12.879192280    20.702744910     0.000000000    3
    12.184334790    19.281412330     0.000000000    4
    14.643808090    20.519232880     0.000000000    2
    14.901385600    19.488326740     0.000000000    1
    16.057555090    21.516177810     0.000000000    3
    17.474404620    20.845611260     0.000000000    4
    16.539448220    23.836686090     0.000000000    1
%endblock AtomicCoordinatesAndAtomicSpecies

%block Geometry.Constraints
    atom all 0.0 0.0 1.0 # constrain along z Cartesian vector
    clear-prev [21 -- 23]
%endblock

%include ../../Defaults.fdf
