# mpirun -np 6 siesta-4.1.5 < AT.fdf > AT.out &

SystemLabel      AT

NumberOfAtoms    30

NumberOfSpecies  4
%block ChemicalSpeciesLabel
    1    1  H
    2    7  N
    3   14  Si
    4    8  O
%endblock ChemicalSpeciesLabel

###################################
# This overrides Defaults.fdf conf
###################################
MD.TypeOfRun                CG # CG, Verlet
MD.Steps                    400

AtomicCoordinatesFormat NotScaledCartesianAng
%block AtomicCoordinatesAndAtomicSpecies
   17.27551737   11.40673478    0.00000000   1       1  H
   16.34972852   11.91405124    0.00000000   2       2  N
   14.75252857   11.08718540    0.00000000   3       3  Si
   14.75883618    9.59142963    0.00000000   1       4  H
   13.31660453   12.00890376    0.00000000   2       5  N
   13.88523070   13.72367692    0.00000000   3       6  Si
   13.47325744   15.90229319    0.00000000   3       7  Si
   11.90148439   16.62246114    0.00000000   2       8  N
   11.82228816   17.69916157    0.00000000   1       9  H
   11.02364815   16.04459335    0.00000000   1      10  H
   14.85344503   16.98031525    0.00000000   2      11  N
   16.51408698   16.51111475    0.00000000   3      12  Si
   17.42523088   17.70081696    0.00000000   1      13  H
   17.31603400   14.96709089    0.00000000   2      14  N
   16.08870793   13.73493419    0.00000000   3      15  Si
   15.66427004   23.19035171    0.00000000   2      16  N
   14.05093567   23.97829626    0.00000000   3      17  Si
   14.22478478   25.46423134    0.00000000   1      18  H
   12.20799559   22.80368883    0.00000000   3      19  Si
    9.96320648   23.44026273    0.00000000   3      20  Si
    9.77908352   24.59285026    0.93934163   1      21  H
    9.24363537   22.23220146    0.51285181   1      22  H
    9.42491226   23.80504017   -1.36361987   1      23  H
   12.93936420   20.65634258    0.00000000   3      24  Si
   12.17613740   19.27241445    0.00000000   4      25  O
   14.68716157   20.41103332    0.00000000   2      26  N
   14.93360285   19.35832900    0.00000000   1      27  H
   16.07429938   21.45182830    0.00000000   3      28  Si
   17.51602166   20.84122225    0.00000000   4      29  O
   16.53294210   23.80441708    0.00000000   1      30  H
%endblock AtomicCoordinatesAndAtomicSpecies

%block Geometry.Constraints
    atom all 0.0 0.0 1.0 # constrain along z Cartesian vector
    clear-prev [21 -- 23]
%endblock

%include ../../Defaults.fdf
