# mpirun -np 4 siesta-4.1.5 < AT.fdf > AT.out &

SystemLabel      AT

NumberOfAtoms    30

NumberOfSpecies  4
%block ChemicalSpeciesLabel
    1    1  H
    2    7  N
    3   14  Si
    4    8  O
%endblock ChemicalSpeciesLabel

############################################
# This overrides Defaults.fdf configuration
############################################
MD.TypeOfRun                Verlet # CG, Verlet
MD.Steps                    0
MaxSCFIterations            200
SCF.MustConverge            F

AtomicCoordinatesFormat NotScaledCartesianAng
%block AtomicCoordinatesAndAtomicSpecies
    2.28494382 -5.19529124 0.0  1  1  H
    1.37433094 -4.6647107 0.0  2  2  N
    -0.21830245 -5.49458215 0.0  3  3  Si
    -0.17484108 -6.98516892 0.0  1  4  H
    -1.66171682 -4.58600741 0.0  2  5  N
    -1.09026419 -2.87456374 0.0  3  6  Si
    -1.53038332 -0.70765692 0.0  3  7  Si
    -3.14415959 -0.09186471 0.0  2  8  N
    -3.40268075 0.95848335 0.0  1  9  H
    -3.95073599 -0.76720972 0.0  1  10  H
    -0.17836637 0.41349951 0.0  2  11  N
    1.49520211 -0.0473996 0.0  3  12  Si
    2.45603905 1.10727302 0.0  1  13  H
    2.30451743 -1.58574382 0.0  2  14  N
    1.10725559 -2.84610319 0.0  3  15  Si
    0.6854612673562425 6.720392316072745 0.0  1  16  H
    -0.12324941264375752 6.028186436072745 0.0  2  17  N
    -1.7798392526437574 6.741306536072745 0.0  3  18  Si
    -1.6829740826437574 8.252031746072745 0.0  1  19  H
    -3.5059956026437575 5.3982584060727445 0.0  3  20  Si
    -5.860449852643757 5.390271476072745 0.0  3  21  Si
    -6.422867972643758 6.124761126072745 -1.20183078  1  22  H
    -6.160263602643758 3.9111803460727446 -0.08618332  1  23  H
    -6.422980432643757 5.955103936072745 1.28814761  1  24  H
    -2.5766049626437577 3.327687176072745 0.0  3  25  Si
    -3.5260733226437577 2.0391510460727447 0.0  4  26  O
    -0.7856600926437576 3.153951706072745 0.0  2  27  N
    -0.4546687326437575 2.121594726072745 0.0  1  28  H
    0.5227981273562424 4.348498126072744 0.0  3  29  Si
    2.088735057356242 4.081251276072745 0.0  4  30  O
%endblock AtomicCoordinatesAndAtomicSpecies

#############
# Unit Cell
#############
LatticeConstant 1.0 Ang
%block LatticeVectors
    30.00000    0.000000    0.000000
    0.000000    45.00000    0.000000
    0.000000    0.000000    10.00000
%endblock LatticeVectors

%include ../../../../Defaults.fdf
