SystemLabel      AT

NumberOfAtoms    30

NumberOfSpecies  4
%block ChemicalSpeciesLabel
    1    1  H
    2    7  N
    3   14  Si
    4    8  O
%endblock ChemicalSpeciesLabel

# Single point calculation
MD.TypeOfRun                CG
MD.Steps                    0
SCF.MustConverge            F # In case it does not. There can be 2 very close atoms

AtomicCoordinatesFormat NotScaledCartesianAng
%block AtomicCoordinatesAndAtomicSpecies
2.582377650    -5.776830440   0.000000000       1
1.654759240    -5.269361980   0.000000000       2
0.063128840    -6.101704590   0.000000000       3
0.119223240    -7.596849500   0.000000000       1
-1.376892050   -5.182603740   0.000000000       2
-0.824371900   -3.460866440   0.000000000       3
-1.170571480   -1.270002100   0.000000000       3
-2.706933680   -0.417515780   0.000000000       2
-2.754569660   0.634858620    0.000000000       1
-3.637675640   -0.909967860   0.000000000       1
0.218091790    -0.234193970   0.000000000       2
1.872004100    -0.697162300   0.000000000       3
2.828001130    0.461464770    0.000000000       1
2.648150080    -2.255024470   0.000000000       2
1.391921380    -3.454727220   0.000000000       3
1.902837350    4.542488733    0.000000000       2
0.575465830    5.752693033    0.000000000       3
1.215467100    7.114011273    0.000000000       1
-1.510280110   5.082161683    0.000000000       3
-3.539842710   6.212277873    0.000000000       3
-3.385606940   7.372508083    0.940305280       1
-4.525777430   5.190357253    0.512613700       1
-3.956057670   6.688503723    -1.366678340      1
-1.443784690   2.808185063    0.000000000       3
-2.482833420   1.615125563    0.000000000       4
0.213206890    2.174209873    0.000000000       2
0.195189520    1.111765043    0.000000000       1
1.836809960    2.771280083    0.000000000       3
3.031826130    1.756854883    0.000000000       4
2.902874720    4.887995833    0.000000000       1
%endblock AtomicCoordinatesAndAtomicSpecies

%include ../../../Defaults.fdf
