# mpirun -np 4 siesta-4.1.5 < GC.fdf > GC.out &

SystemLabel      GC

NumberOfAtoms    29

NumberOfSpecies  4
%block ChemicalSpeciesLabel
    1    1  H
    2    7  N
    3   14  Si
    4    8  O
%endblock ChemicalSpeciesLabel

############################################
# This overrides Defaults.fdf configuration
############################################
MD.TypeOfRun                Verlet # CG, Verlet
MD.Steps                    0
MaxSCFIterations            200
SCF.MustConverge            F

AtomicCoordinatesFormat NotScaledCartesianAng
%block AtomicCoordinatesAndAtomicSpecies
    1.03711479    3.59345352   -0.00000000   1       1  H
    0.33062806    2.80341734   -0.00000000   2       2  N
   -1.39965885    3.24478125    0.00000000   3       3  Si
   -1.55543853    4.73477351    0.00000000   1       4  H
   -2.92298047    1.68587373   -0.00000000   3       5  Si
   -4.40616810    1.92870409   -0.00000000   1       6  H
   -1.72458961   -0.22740243   -0.00000000   3       7  Si
   -2.49061507   -1.76011917   -0.00000000   2       8  N
   -1.90036852   -2.71733220    0.00000000   1       9  H
   -3.54223739   -1.84057940   -0.00000000   1      10  H
   -0.00838955   -0.17222812    0.00000000   2      11  N
    1.06663307    1.15811072   -0.00000000   3      12  Si
    2.67530639    1.13930046   -0.00000000   4      13  O
    5.61644830   -7.44953905    0.00000000   1      14  H
    4.58206954   -7.23203760    0.00000000   2      15  N
    3.29666389   -8.49263600    0.00000000   3      16  Si
    3.80117524   -9.90371886   -0.00000000   1      17  H
    1.65934232   -8.01362137    0.00000000   2      18  N
    1.68097912   -6.20463398   -0.00000000   3      19  Si
    0.54543521   -4.28636135    0.00000000   3      20  Si
   -1.03431493   -3.94450034    0.00000000   4      21  O
    1.73226934   -2.87719605    0.00000000   2      22  N
    1.20957366   -1.92961761   -0.00000000   1      23  H
    3.50853448   -2.77677601    0.00000000   3      24  Si
    4.13684451   -1.17938608    0.00000000   2      25  N
    3.54296161   -0.26248101    0.00000000   1      26  H
    5.18364407   -1.05231197   -0.00000000   1      27  H
    4.63288658   -4.07521596   -0.00000000   2      28  N
    3.79410501   -5.58634043    0.00000000   3      29  Si
%endblock AtomicCoordinatesAndAtomicSpecies

#############
# Unit Cell
#############
LatticeConstant 1.0 Ang
%block LatticeVectors
    30.00000    0.000000    0.000000
    0.000000    45.00000    0.000000
    0.000000    0.000000    10.00000
%endblock LatticeVectors

%include ../../../../Defaults.fdf