SystemLabel      3G

NumberOfAtoms    195

NumberOfSpecies  5
%block ChemicalSpeciesLabel
    1    1  H ../../../Pseudos/VW/H/H.psf
    2    8  O ../../../Pseudos/VW/O/O.psf
    3   15  P ../../../Pseudos/VW/P/P.psf
    4    6  C ../../../Pseudos/VW/C/C.psf
    5    7  N ../../../Pseudos/VW/N/N.psf
%endblock ChemicalSpeciesLabel

############################################
# This overrides Defaults.fdf configuration
############################################
MD.TypeOfRun                Verlet # CG, Verlet
MD.Steps                    1000
MD.Quench                   True
SCF.H.Tolerance             0.0006 eV
SCF.DM.Tolerance            0.0008
MD.MaxForceTol              0.2 eV/Ang
MaxSCFIterations            120
SCF.Mixer.Weight            0.13
SCF.MustConverge            F

AtomicCoordinatesFormat NotScaledCartesianAng
%block AtomicCoordinatesAndAtomicSpecies
    -1.547000000     9.377430000    -1.216440000    1
    -1.440000000     8.895990000    -0.400590000    2
     0.000000000     8.910000000     0.000000000    3
     0.220000000    10.172580000     0.733690000    2
     0.790000000     8.731480000    -1.239360000    2
     0.250000000     7.668720000     0.971400000    2
    -0.690000000     7.423090000     2.046410000    4
     0.040000000     6.860590000     3.246610000    4
     0.250000000     5.428470000     3.036460000    2
     1.440000000     7.411960000     3.507530000    4
     1.830000000     7.270730000     4.868160000    2
     2.320000000     6.527300000     2.637410000    4
     1.610000000     5.184200000     2.731980000    4
     1.660000000     4.387620000     1.478400000    5
     1.580000000     4.816050000     0.168630000    4
     1.660000000     3.854540000    -0.713360000    5
     1.800000000     2.699400000     0.056700000    4
     1.930000000     1.348150000    -0.338500000    4
     1.950000000     0.869550000    -1.471250000    2
     2.050000000     0.496300000     0.774650000    5
     2.050000000     0.908400000     2.091220000    4
     2.180000000    -0.051780000     3.009550000    5
     1.920000000     2.178750000     2.465190000    5
     1.800000000     3.019880000     1.403300000    4
    -1.179000000     8.368030000     2.324930000    1
    -1.449000000     6.701970000     1.711290000    1
    -0.582000000     7.035510000     4.131680000    1
     2.073000000     4.594980000     3.544150000    1
     2.352000000     6.888980000     1.598480000    1
     3.344000000     6.467490000     3.036870000    1
     1.510000000     8.469080000     3.207140000    1
     1.461000000     5.864050000    -0.105560000    1
     2.143000000    -0.483660000     0.597850000    1
     2.180000000     0.187870000     4.011600000    1
     2.281000000    -1.035850000     2.717260000    1
     3.379980000     7.208340000     5.237170000    3
     3.599980000     7.798530000     6.572860000    2
     4.169980000     7.792390000     4.129570000    2
     3.629980000     5.633150000     5.293440000    2
     2.689980000     4.802550000     6.018760000    4
     3.419980000     3.642020000     6.659110000    4
     3.629980000     2.606940000     5.647320000    2
     4.819980000     3.934730000     7.194300000    4
     5.209980000     3.020710000     8.212050000    2
     5.699980000     3.730470000     5.970360000    4
     4.989980000     2.588280000     5.257410000    4
     5.039980000     2.680680000     3.775030000    5
     4.959980000     3.797150000     2.967230000    4
     5.039980000     3.537700000     1.688520000    5
     5.179980000     2.150540000     1.632540000    4
     5.309980000     1.289640000     0.518570000    4
     5.329980000     1.568260000    -0.679160000    2
     5.429980000    -0.053810000     0.918430000    5
     5.429980000    -0.494270000     2.225780000    4
     5.559980000    -1.810860000     2.404340000    5
     5.299980000     0.313640000     3.275020000    5
     5.179980000     1.618290000     2.910330000    4
     2.200980000     5.403320000     6.799510000    1
     1.930980000     4.416130000     5.323780000    1
     2.797980000     3.263310000     7.477970000    1
     5.452980000     1.634220000     5.568140000    1
     5.731980000     4.633740000     5.342440000    1
     6.723980000     3.447280000     6.258380000    1
     4.889980000     4.966520000     7.572630000    1
     4.840980000     4.806170000     3.361400000    1
     5.522980000    -0.742700000     0.199380000    1
     5.559980000    -2.205980000     3.355880000    1
     5.660980000    -2.435180000     1.589450000    1
     6.759960000     2.753340000     8.473910000    3
     6.979960000     2.445710000     9.901420000    2
     7.549960000     3.876880000     7.921150000    2
     7.009960000     1.445900000     7.593570000    2
     6.069960000     0.347610000     7.692150000    4
     6.799960000    -0.967670000     7.528060000    4
     7.009960000    -1.210360000     6.101100000    2
     8.199960000    -1.045440000     8.133080000    4
     8.589960000    -2.383110000     8.419220000    2
     9.079960000    -0.491280000     7.022840000    4
     8.369960000    -0.996260000     5.774690000    4
     8.419960000    -0.050190000     4.629730000    5
     8.339960000     1.327860000     4.632440000    4
     8.419960000     1.869570000     3.445450000    5
     8.559960000     0.780240000     2.584810000    4
     8.689960000     0.738540000     1.177570000    4
     8.709960000     1.667940000     0.372350000    2
     8.809960000    -0.583370000     0.711390000    5
     8.809960000    -1.708160000     1.510170000    4
     8.939960000    -2.878260000     0.880760000    5
     8.679960000    -1.671260000     2.833900000    5
     8.559960000    -0.401420000     3.305720000    4
     5.580960000     0.374720000     8.676910000    1
     5.310960000     0.443490000     6.902770000    1
     6.177960000    -1.755370000     7.967930000    1
     8.832960000    -1.950760000     5.465290000    1
     9.111960000     0.608560000     7.045770000    1
    10.103960000    -0.889670000     7.089390000    1
     8.269960000    -0.433080000     9.045640000    1
     8.220960000     1.912490000     5.544420000    1
     8.902960000    -0.718050000    -0.275240000    1
     8.939960000    -3.757210000     1.418320000    1
     9.040960000    -2.904360000    -0.145470000    1
     8.458960000    -2.926630000     7.639610000    1
    12.480960000    -0.090990000    -9.510560000    1
    12.360960000    -0.778700000    -8.869880000    2
    10.919960000    -1.177710000    -8.831820000    3
    10.699960000    -2.072060000    -9.987320000    2
    10.129960000     0.074380000    -8.819690000    2
    10.669960000    -1.976780000    -7.474000000    2
    11.609960000    -3.011330000    -7.087830000    4
    10.879960000    -4.120300000    -6.375460000    4
    10.669960000    -3.728870000    -4.979600000    2
     9.479960000    -4.450850000    -6.886940000    4
     9.089960000    -5.788360000    -6.563150000    2
     8.599960000    -3.478170000    -6.120780000    4
     9.309960000    -3.394140000    -4.776970000    4
     9.259960000    -2.046150000    -4.153330000    5
     9.109960000    -1.969290000    -2.771620000    4
     9.019960000    -3.020170000    -2.120060000    2
     9.059960000    -0.554850000    -2.242370000    5
     9.159960000     0.367810000    -2.916900000    4
     9.109960000     1.534260000    -2.294270000    5
     9.309960000     0.319150000    -4.338280000    4
     9.359960000    -0.920670000    -4.904330000    4
    12.099960000    -3.412090000    -7.986670000    1
    12.369960000    -2.583700000    -6.417420000    1
    11.502960000    -5.027180000    -6.427520000    1
     8.847960000    -4.117790000    -4.090260000    1
     8.567960000    -2.496610000    -6.617720000    1
     7.576960000    -3.866740000    -6.009460000    1
     9.410960000    -4.299910000    -7.970060000    1
     9.482960000    -1.005890000    -5.983030000    1
     9.380960000     1.226390000    -4.937990000    1
     8.992960000     1.568190000    -1.271670000    1
     9.188960000     2.410620000    -2.830630000    1
     7.539980000    -6.144000000    -6.452850000    3
     7.319980000    -7.546730000    -6.861990000    2
     6.749980000    -5.123910000    -7.179000000    2
     7.289980000    -5.992360000    -4.884670000    2
     8.229980000    -6.602340000    -3.964150000    4
     7.499980000    -7.080790000    -2.736000000    4
     7.289980000    -5.943650000    -1.836800000    2
     6.099980000    -7.648860000    -2.955500000    4
     5.709980000    -8.540600000    -1.907390000    2
     5.219980000    -6.411600000    -2.907390000    4
     5.929980000    -5.553750000    -1.869630000    4
     5.879980000    -4.096640000    -2.157420000    5
     5.729980000    -3.222310000    -1.084770000    4
     5.639980000    -3.689510000     0.060050000    2
     5.679980000    -1.766920000    -1.487990000    5
     5.779980000    -1.416950000    -2.576020000    4
     5.729980000    -0.107300000    -2.757910000    5
     5.929980000    -2.291780000    -3.697330000    4
     5.979980000    -3.627530000    -3.426530000    4
     8.719980000    -7.454880000    -4.455780000    1
     8.989980000    -5.862320000    -3.673140000    1
     8.122980000    -7.845080000    -2.245070000    1
     5.467980000    -5.735560000    -0.888720000    1
     5.187980000    -5.909600000    -3.886380000    1
     4.196980000    -6.660530000    -2.588940000    1
     6.030980000    -8.163390000    -3.920490000    1
     6.102980000    -4.330520000    -4.249130000    1
     6.000980000    -1.910300000    -4.715770000    1
     5.612980000     0.521220000    -1.950560000    1
     5.808980000     0.286430000    -3.706950000    1
     4.160000000    -8.763500000    -1.609110000    3
     3.940000000   -10.138810000    -1.115610000    2
     3.370000000    -8.365030000    -2.796170000    2
     3.910000000    -7.719060000    -0.429570000    2
     4.850000000    -7.671480000     0.673690000    4
     4.120000000    -7.336660000     1.948510000    4
     3.910000000    -5.888160000     2.007590000    2
     2.720000000    -7.925260000     2.104830000    4
     2.330000000    -8.030630000     3.476930000    2
     1.840000000    -6.896020000     1.416520000    4
     2.550000000    -5.592010000     1.751850000    4
     2.500000000    -4.582350000     0.662550000    5
     2.350000000    -3.244510000     1.016430000    4
     2.260000000    -2.949580000     2.217220000    2
     2.300000000    -2.304080000    -0.165240000    5
     2.400000000    -2.660480000    -1.251180000    4
     2.350000000    -1.707870000    -2.168130000    5
     2.550000000    -4.027320000    -1.644130000    4
     2.600000000    -4.948800000    -0.639910000    4
     5.340000000    -8.650170000     0.777070000    1
     5.610000000    -6.901730000     0.474150000    1
     4.743000000    -7.666420000     2.794920000    1
     2.088000000    -5.162540000     2.652290000    1
     1.808000000    -7.065320000     0.329430000    1
     0.817000000    -6.910230000     1.820470000    1
     2.651000000    -8.908730000     1.626570000    1
     2.723000000    -6.001040000    -0.892200000    1
     2.621000000    -4.317330000    -2.692290000    1
     2.233000000    -0.724830000    -1.884400000    1
     2.429000000    -1.947160000    -3.167340000    1
     1.613000000    -8.663220000     3.556940000    1
%endblock AtomicCoordinatesAndAtomicSpecies

PAO.BasisType    split
PAO.BasisSize    DZP
SolutionMethod     diagon
PAO.SplitNorm    0.150000
PAO.EnergyShift    0.020000  Ry
Harris_functional    false
XC.functional    LDA
XC.Authors    PZ
SpinPolarized    false
MeshCutoff    100.000000 Ry
kgrid_cutoff    0.000000 Bohr
ElectronicTemperature    300.000000 K
MaxSCFIterations    50
DM.NumberPulay    0
DM.MixingWeight    0.250000
MD.TypeOfRun    CG
MD.VariableCell    false
MD.NumCGsteps    0
MD.MaxCGDispl    0.200000 Bohr
MD.PreconditionVariableCell    5.000000 Ang
MD.MaxStressTol    1.000000 GPa

%block MD.TargetStress
-1.000000 -1.000000 -1.000000 0.000000 0.000000 0.000000
%endblock MD.TargetStress

MD.MaxForceTol    0.040000 eV/Ang
MD.InitialTimeStep    1
MD.FinalTimeStep    1
MD.LengthTimeStep    1 fs
MD.InitialTemperature    0.000000 K
MD.Quench    false
MD.TargetTemperature    0.000000 K
MD.NoseMass    100.000000 Ry*fs**2
MD.ParrinelloRahmanMass    100.000000 Ry*fs**2
MD.AnnealOption    TemperatureandPressure
MD.TauRelax    100.000000 fs
MD.BulkModulus    100.000000 Ry/Bohr**3
MD.TargetPressure    0.000000 GPa
MD.FCDispl    0.040000 Bohr
MD.FCfirst    1
MD.FClast    0

UseSaveData		false
WriteCoorInital    true
WriteCoorStep    false
WriteForces		false
WriteKpoints		false
WriteEigenvalues		false
WriteKbands		false
WriteBands		false
WriteWaveFunctions		false
WriteMullikenPop		0
WriteDM		true
WriteCoorXmol		false
WriteCoorCerius		false
WriteMDXmol		false
WriteMDhistory		true
