SystemLabel      AT

NumberOfAtoms    30

NumberOfSpecies  4
%block ChemicalSpeciesLabel
    1    1  H
    2    7  N
    3   14  Si
    4    8  O
%endblock ChemicalSpeciesLabel

# Single point calculation
MD.TypeOfRun                CG
MD.Steps                    0
SCF.MustConverge            F # In case it does not. There can be 2 very close atoms

AtomicCoordinatesFormat NotScaledCartesianAng
%block AtomicCoordinatesAndAtomicSpecies
2.582377650    -5.776830440   0.000000000       1
1.654759240    -5.269361980   0.000000000       2
0.063128840    -6.101704590   0.000000000       3
0.119223240    -7.596849500   0.000000000       1
-1.376892050   -5.182603740   0.000000000       2
-0.824371900   -3.460866440   0.000000000       3
-1.170571480   -1.270002100   0.000000000       3
-2.706933680   -0.417515780   0.000000000       2
-2.754569660   0.634858620    0.000000000       1
-3.637675640   -0.909967860   0.000000000       1
0.218091790    -0.234193970   0.000000000       2
1.872004100    -0.697162300   0.000000000       3
2.828001130    0.461464770    0.000000000       1
2.648150080    -2.255024470   0.000000000       2
1.391921380    -3.454727220   0.000000000       3
1.917233062    3.696457353    0.000000000       2
0.589861542    4.906661653    0.000000000       3
1.229862812    6.267979893    0.000000000       1
-1.495884398   4.236130303    0.000000000       3
-3.525446998   5.366246493    0.000000000       3
-3.371211228   6.526476703    0.940305280       1
-4.511381718   4.344325873    0.512613700       1
-3.941661958   5.842472343    -1.366678340      1
-1.429388978   1.962153683    0.000000000       3
-2.468437708   0.769094183    0.000000000       4
0.227602602    1.328178493    0.000000000       2
0.209585232    0.265733663    0.000000000       1
1.851205672    1.925248703    0.000000000       3
3.046221842    0.910823503    0.000000000       4
2.917270432    4.041964453    0.000000000       1
%endblock AtomicCoordinatesAndAtomicSpecies

%include ../../../Defaults.fdf
