# mpirun -np 4 siesta-4.1.5 < GC.fdf > GC.out &

SystemLabel      GC

NumberOfAtoms    29

NumberOfSpecies  4
%block ChemicalSpeciesLabel
    1    1  H
    2    7  N
    3   14  Si
    4    8  O
%endblock ChemicalSpeciesLabel

############################################
# This overrides Defaults.fdf configuration
############################################
MD.TypeOfRun                CG # CG, Verlet
MD.Steps                    0
MaxSCFIterations            600

AtomicCoordinatesFormat NotScaledCartesianAng
%block AtomicCoordinatesAndAtomicSpecies
    -0.7284124166729931 6.221087858933371 0.0  1  1  H
    -1.434899146672993 5.431051678933372 0.0  2  2  N
    -3.165186056672993 5.872415588933372 0.0  3  3  Si
    -3.320965736672993 7.362407848933371 0.0  1  4  H
    -4.688507676672993 4.313508068933372 0.0  3  5  Si
    -6.171695306672993 4.556338428933371 0.0  1  6  H
    -3.490116816672993 2.400231908933371 0.0  3  7  Si
    -4.256142276672993 0.8675151689333711 0.0  2  8  N
    -3.665895726672993 -0.0896978610666288 0.0  1  9  H
    -5.3077645966729925 0.7870549389333712 0.0  1  10  H
    -1.773916756672993 2.455406218933371 0.0  2  11  N
    -0.698894136672993 3.7857450589333714 0.0  3  12  Si
    0.9097791833270068 3.766934798933371 0.0  4  13  O
    5.6164483 -7.44953905 0.0  1  14  H
    4.58206954 -7.2320376 0.0  2  15  N
    3.29666389 -8.492636 0.0  3  16  Si
    3.80117524 -9.90371886 -0.0  1  17  H
    1.65934232 -8.01362137 0.0  2  18  N
    1.68097912 -6.20463398 -0.0  3  19  Si
    0.54543521 -4.28636135 0.0  3  20  Si
    -1.03431493 -3.94450034 0.0  4  21  O
    1.73226934 -2.87719605 0.0  2  22  N
    1.20957366 -1.92961761 -0.0  1  23  H
    3.50853448 -2.77677601 0.0  3  24  Si
    4.13684451 -1.17938608 0.0  2  25  N
    3.54296161 -0.26248101 0.0  1  26  H
    5.18364407 -1.05231197 -0.0  1  27  H
    4.63288658 -4.07521596 -0.0  2  28  N
    3.79410501 -5.58634043 0.0  3  29  Si
%endblock AtomicCoordinatesAndAtomicSpecies

%include ../../../../Defaults.fdf