SystemLabel      GC

NumberOfAtoms    29

NumberOfSpecies  4
%block ChemicalSpeciesLabel
    1    8  O
    2    7  N
    3   14  Si
    4    1  H
%endblock ChemicalSpeciesLabel

# Single point calculation
MD.TypeOfRun                CG
MD.Steps                    0
SCF.MustConverge            F # In case it does not. There can be 2 very close atoms

AtomicCoordinatesFormat NotScaledCartesianAng
%block AtomicCoordinatesAndAtomicSpecies
0.854927710    3.902811360    0.000000000       1
-3.151486600   0.823854130    0.000000000       2
1.928518680    1.174000900    0.000000000       2
0.979899500    -1.830275890   0.000000000       2
-2.159258930   -2.028004800   0.000000000       2
3.785319770    -1.112700660   0.000000000       2
-1.345933810   0.976250250    0.000000000       3
-0.599439880   -1.096077170   0.000000000       3
0.453182890    2.350510230    0.000000000       3
2.133302030    -0.576510800   0.000000000       3
-3.516065660   -0.842056510   0.000000000       3
2.824527830    1.754723110    0.000000000       4
-4.877551690   -1.469214660   0.000000000       4
3.994952020    -2.143204000   0.000000000       4
4.620903610    -0.483666060   0.000000000       4
-2.279085180   -3.081514090   0.000000000       4
7.721809339    7.107591566    -0.000000000      3
9.590768829    8.367235196    -0.000000000      3
9.131836449    4.365853346    -0.000000000      3
11.199429169   6.872444566    -0.000000000      3
7.781339289    5.422639106    -0.000000000      2
6.091810139    7.737651796    -0.000000000      2
10.775725319   5.156943756    -0.000000000      2
9.871132529    9.837457716    -0.000000000      4
12.694840549   7.091297106    -0.000000000      4
5.847351149    8.756117746    -0.000000000      4
5.265068959    7.080803666    -0.000000000      4
9.191112209    2.783411316    -0.000000000      1
11.547380909   4.429976396    -0.000000000      4
%endblock AtomicCoordinatesAndAtomicSpecies

%include ../../../Defaults.fdf
