SystemLabel      GC

NumberOfAtoms    29

NumberOfSpecies  4
%block ChemicalSpeciesLabel
    1    8  O
    2    7  N
    3   14  Si
    4    1  H
%endblock ChemicalSpeciesLabel

# Single point calculation
MD.TypeOfRun                CG
MD.Steps                    0
SCF.MustConverge            F # In case it does not. There can be 2 very close atoms

AtomicCoordinatesFormat NotScaledCartesianAng
%block AtomicCoordinatesAndAtomicSpecies
0.854927710    3.902811360    0.000000000       1
-3.151486600   0.823854130    0.000000000       2
1.928518680    1.174000900    0.000000000       2
0.979899500    -1.830275890   0.000000000       2
-2.159258930   -2.028004800   0.000000000       2
3.785319770    -1.112700660   0.000000000       2
-1.345933810   0.976250250    0.000000000       3
-0.599439880   -1.096077170   0.000000000       3
0.453182890    2.350510230    0.000000000       3
2.133302030    -0.576510800   0.000000000       3
-3.516065660   -0.842056510   0.000000000       3
2.824527830    1.754723110    0.000000000       4
-4.877551690   -1.469214660   0.000000000       4
3.994952020    -2.143204000   0.000000000       4
4.620903610    -0.483666060   0.000000000       4
-2.279085180   -3.081514090   0.000000000       4
6.120012753    5.953320775    -0.000000000      3
7.988972243    7.212964405    -0.000000000      3
7.530039863    3.211582555    -0.000000000      3
9.597632583    5.718173775    -0.000000000      3
6.179542703    4.268368315    -0.000000000      2
4.490013553    6.583381005    -0.000000000      2
9.173928733    4.002672965    -0.000000000      2
8.269335943    8.683186925    -0.000000000      4
11.093043963   5.937026315    -0.000000000      4
4.245554563    7.601846955    -0.000000000      4
3.663272373    5.926532875    -0.000000000      4
7.589315623    1.629140525    -0.000000000      1
9.945584323    3.275705605    -0.000000000      4
%endblock AtomicCoordinatesAndAtomicSpecies

%include ../../../Defaults.fdf
