SystemLabel      GC

NumberOfAtoms    29

NumberOfSpecies  4
%block ChemicalSpeciesLabel
    1    8  O
    2    7  N
    3   14  Si
    4    1  H
%endblock ChemicalSpeciesLabel

# Single point calculation
MD.TypeOfRun                CG
MD.Steps                    0
SCF.MustConverge            F # In case it does not. There can be 2 very close atoms

AtomicCoordinatesFormat NotScaledCartesianAng
%block AtomicCoordinatesAndAtomicSpecies
0.854927710    3.902811360    0.000000000       1
-3.151486600   0.823854130    0.000000000       2
1.928518680    1.174000900    0.000000000       2
0.979899500    -1.830275890   0.000000000       2
-2.159258930   -2.028004800   0.000000000       2
3.785319770    -1.112700660   0.000000000       2
-1.345933810   0.976250250    0.000000000       3
-0.599439880   -1.096077170   0.000000000       3
0.453182890    2.350510230    0.000000000       3
2.133302030    -0.576510800   0.000000000       3
-3.516065660   -0.842056510   0.000000000       3
2.824527830    1.754723110    0.000000000       4
-4.877551690   -1.469214660   0.000000000       4
3.994952020    -2.143204000   0.000000000       4
4.620903610    -0.483666060   0.000000000       4
-2.279085180   -3.081514090   0.000000000       4
7.378567214    6.860247825    -0.000000000      3
9.247526704    8.119891455    -0.000000000      3
8.788594324    4.118509605    -0.000000000      3
10.856187044   6.625100825    -0.000000000      3
7.438097164    5.175295365    -0.000000000      2
5.748568014    7.490308055    -0.000000000      2
10.432483194   4.909600015    -0.000000000      2
9.527890404    9.590113975    -0.000000000      4
12.351598424   6.843953365    -0.000000000      4
5.504109024    8.508774005    -0.000000000      4
4.921826834    6.833459925    -0.000000000      4
8.847870084    2.536067575    -0.000000000      1
11.204138784   4.182632655    -0.000000000      4
%endblock AtomicCoordinatesAndAtomicSpecies

%include ../../../Defaults.fdf
