# mpirun -np 6 siesta-4.1.5 < CG.fdf > GC.out &

SystemLabel      GC

NumberOfAtoms    29

NumberOfSpecies  4
%block ChemicalSpeciesLabel
    1    8  O
    2    7  N
    3   14  Si
    4    1  H
%endblock ChemicalSpeciesLabel

###################################
# This overrides Defaults.fdf conf
###################################
MD.TypeOfRun                CG # CG, Verlet
MD.Steps                    300

AtomicCoordinatesFormat NotScaledCartesianAng
%block AtomicCoordinatesAndAtomicSpecies
    0.96047835    3.90329914    0.00000000   1       1  O
   -3.03372397    0.99695349    0.00000000   2       2  N
    2.06795744    1.19282547    0.00000000   2       3  N
    1.05687566   -1.76386999    0.00000000   2       4  N
   -2.09863748   -1.88337616    0.00000000   2       5  N
    3.92205524   -1.09281382    0.00000000   2       6  N
   -1.22805717    1.07578758    0.00000000   3       7  Si
   -0.49693459   -1.00582003    0.00000000   3       8  Si
    0.62180750    2.32489186    0.00000000   3       9  Si
    2.28847249   -0.56789244    0.00000000   3      10  Si
   -3.42304012   -0.66331368    0.00000000   3      11  Si
    2.97064557    1.77540877    0.00000000   4      12  H
   -4.80317234   -1.24206178    0.00000000   4      13  H
    4.10440661   -2.13005581    0.00000000   4      14  H
    4.80269834   -0.44387835    0.00000000   4      15  H
   -2.26954009   -2.92812759    0.00000000   4      16  H
    4.66852677    4.84515533    0.00000000   3      17  Si
    6.57432942    6.06386960    0.00000000   3      18  Si
    6.13431038    2.13229770    0.00000000   3      19  Si
    8.20286139    4.60586325    0.00000000   3      20  Si
    4.75952338    3.13766257    0.00000000   2      21  N
    3.09579356    5.52560282    0.00000000   2      22  N
    7.78862037    2.86373873    0.00000000   2      23  N
    6.81176781    7.54462196    0.00000000   4      24  H
    9.69123422    4.87913447    0.00000000   4      25  H
    2.96740074    6.56900649    0.00000000   4      26  H
    2.18323013    4.88178988    0.00000000   4      27  H
    6.11384874    0.53379412    0.00000000   1      28  O
    8.55810826    2.13196017    0.00000000   4      29  H
%endblock AtomicCoordinatesAndAtomicSpecies

%block Geometry.Constraints
    atom all 0.0 0.0 1.0 # constrain along z Cartesian vector
%endblock

%block LatticeVectors
    23.645973    0.000000    0.000000
    0.000000   19.441441    0.000000
    0.000000    0.000000    9.854683
%endblock LatticeVectors


%include ../../Defaults.fdf