SystemLabel      GC

NumberOfAtoms    29

NumberOfSpecies  4
%block ChemicalSpeciesLabel
    1    8  O
    2    7  N
    3   14  Si
    4    1  H
%endblock ChemicalSpeciesLabel

# Single point calculation
MD.TypeOfRun                CG
MD.Steps                    0
SCF.MustConverge            F # In case it does not. There can be 2 very close atoms

AtomicCoordinatesFormat NotScaledCartesianAng
%block AtomicCoordinatesAndAtomicSpecies
0.854927710    3.902811360    0.000000000       1
-3.151486600   0.823854130    0.000000000       2
1.928518680    1.174000900    0.000000000       2
0.979899500    -1.830275890   0.000000000       2
-2.159258930   -2.028004800   0.000000000       2
3.785319770    -1.112700660   0.000000000       2
-1.345933810   0.976250250    0.000000000       3
-0.599439880   -1.096077170   0.000000000       3
0.453182890    2.350510230    0.000000000       3
2.133302030    -0.576510800   0.000000000       3
-3.516065660   -0.842056510   0.000000000       3
2.824527830    1.754723110    0.000000000       4
-4.877551690   -1.469214660   0.000000000       4
3.994952020    -2.143204000   0.000000000       4
4.620903610    -0.483666060   0.000000000       4
-2.279085180   -3.081514090   0.000000000       4
7.607395297    7.025143652    -0.000000000      3
9.476354787    8.284787282    -0.000000000      3
9.017422407    4.283405432    -0.000000000      3
11.085015127   6.789996652    -0.000000000      3
7.666925247    5.340191192    -0.000000000      2
5.977396097    7.655203882    -0.000000000      2
10.661311277   5.074495842    -0.000000000      2
9.756718487    9.755009802    -0.000000000      4
12.580426507   7.008849192    -0.000000000      4
5.732937107    8.673669832    -0.000000000      4
5.150654917    6.998355752    -0.000000000      4
9.076698167    2.700963402    -0.000000000      1
11.432966867   4.347528482    -0.000000000      4
%endblock AtomicCoordinatesAndAtomicSpecies

%include ../../../Defaults.fdf
