# mpirun -np 4 siesta-4.1.5 < GC.fdf > GC.out &

SystemLabel      GC

NumberOfAtoms    29

NumberOfSpecies  4
%block ChemicalSpeciesLabel
    1    1  H
    2    7  N
    3   14  Si
    4    8  O
%endblock ChemicalSpeciesLabel

############################################
# This overrides Defaults.fdf configuration
############################################
MD.TypeOfRun                CG # CG, Verlet
MD.Steps                    0
MaxSCFIterations            600

AtomicCoordinatesFormat NotScaledCartesianAng
%block AtomicCoordinatesAndAtomicSpecies
    1.5140822272843584 2.8835828298036286 -0.0  1  1  H
    0.8075954972843584 2.0935466498036286 -0.0  2  2  N
    -0.9226914127156416 2.5349105598036283 0.0  3  3  Si
    -1.0784710927156416 4.0249028198036285 0.0  1  4  H
    -2.446013032715642 0.9760030398036285 -0.0  3  5  Si
    -3.929200662715642 1.2188333998036285 -0.0  1  6  H
    -1.2476221727156416 -0.9372731201963715 -0.0  3  7  Si
    -2.013647632715642 -2.4699898601963715 -0.0  2  8  N
    -1.4234010827156416 -3.4272028901963716 0.0  1  9  H
    -3.0652699527156417 -2.5504500901963714 -0.0  1  10  H
    0.46857788728435834 -0.8820988101963715 0.0  2  11  N
    1.5436005072843584 0.44824002980362854 -0.0  3  12  Si
    3.152273827284358 0.42942976980362857 -0.0  4  13  O
    5.6164483 -7.44953905 0.0  1  14  H
    4.58206954 -7.2320376 0.0  2  15  N
    3.29666389 -8.492636 0.0  3  16  Si
    3.80117524 -9.90371886 -0.0  1  17  H
    1.65934232 -8.01362137 0.0  2  18  N
    1.68097912 -6.20463398 -0.0  3  19  Si
    0.54543521 -4.28636135 0.0  3  20  Si
    -1.03431493 -3.94450034 0.0  4  21  O
    1.73226934 -2.87719605 0.0  2  22  N
    1.20957366 -1.92961761 -0.0  1  23  H
    3.50853448 -2.77677601 0.0  3  24  Si
    4.13684451 -1.17938608 0.0  2  25  N
    3.54296161 -0.26248101 0.0  1  26  H
    5.18364407 -1.05231197 -0.0  1  27  H
    4.63288658 -4.07521596 -0.0  2  28  N
    3.79410501 -5.58634043 0.0  3  29  Si
%endblock AtomicCoordinatesAndAtomicSpecies

%include ../../../../Defaults.fdf