# mpirun -np 4 siesta-4.1.5 < GC.fdf > GC.out &

SystemLabel      GC

NumberOfAtoms    29

NumberOfSpecies  4
%block ChemicalSpeciesLabel
    1    1  H
    2    7  N
    3   14  Si
    4    8  O
%endblock ChemicalSpeciesLabel

############################################
# This overrides Defaults.fdf configuration
############################################
MD.TypeOfRun                Verlet # CG, Verlet
MD.Steps                    0
MaxSCFIterations            200
SCF.MustConverge            F

AtomicCoordinatesFormat NotScaledCartesianAng
%block AtomicCoordinatesAndAtomicSpecies
    1.544226810500712 2.8387186432350235 -0.0  1  1  H
    0.837740080500712 2.0486824632350236 -0.0  2  2  N
    -0.892546829499288 2.4900463732350233 0.0  3  3  Si
    -1.048326509499288 3.9800386332350235 0.0  1  4  H
    -2.415868449499288 0.9311388532350234 -0.0  3  5  Si
    -3.8990560794992883 1.1739692132350235 -0.0  1  6  H
    -1.217477589499288 -0.9821373067649766 -0.0  3  7  Si
    -1.983503049499288 -2.5148540467649765 -0.0  2  8  N
    -1.393256499499288 -3.4720670767649766 0.0  1  9  H
    -3.035125369499288 -2.5953142767649764 -0.0  1  10  H
    0.498722470500712 -0.9269629967649765 0.0  2  11  N
    1.573745090500712 0.4033758432350235 -0.0  3  12  Si
    3.182418410500712 0.38456558323502354 -0.0  4  13  O
    5.6164483 -7.44953905 0.0  1  14  H
    4.58206954 -7.2320376 0.0  2  15  N
    3.29666389 -8.492636 0.0  3  16  Si
    3.80117524 -9.90371886 -0.0  1  17  H
    1.65934232 -8.01362137 0.0  2  18  N
    1.68097912 -6.20463398 -0.0  3  19  Si
    0.54543521 -4.28636135 0.0  3  20  Si
    -1.03431493 -3.94450034 0.0  4  21  O
    1.73226934 -2.87719605 0.0  2  22  N
    1.20957366 -1.92961761 -0.0  1  23  H
    3.50853448 -2.77677601 0.0  3  24  Si
    4.13684451 -1.17938608 0.0  2  25  N
    3.54296161 -0.26248101 0.0  1  26  H
    5.18364407 -1.05231197 -0.0  1  27  H
    4.63288658 -4.07521596 -0.0  2  28  N
    3.79410501 -5.58634043 0.0  3  29  Si
%endblock AtomicCoordinatesAndAtomicSpecies

#############
# Unit Cell
#############
LatticeConstant 1.0 Ang
%block LatticeVectors
    30.00000    0.000000    0.000000
    0.000000    45.00000    0.000000
    0.000000    0.000000    10.00000
%endblock LatticeVectors

%include ../../../../Defaults.fdf