# mpirun -np 4 siesta-4.1.5 < GC.fdf > GC.out &

SystemLabel      GC

NumberOfAtoms    29

NumberOfSpecies  4
%block ChemicalSpeciesLabel
    1    1  H
    2    7  N
    3   14  Si
    4    8  O
%endblock ChemicalSpeciesLabel

############################################
# This overrides Defaults.fdf configuration
############################################
MD.TypeOfRun                CG # CG, Verlet
MD.Steps                    0
MaxSCFIterations            600

AtomicCoordinatesFormat NotScaledCartesianAng
%block AtomicCoordinatesAndAtomicSpecies
    1.5971375844679638 2.759971532428453 -0.0  1  1  H
    0.890650854467964 1.969935352428453 -0.0  2  2  N
    -0.839636055532036 2.411299262428453 0.0  3  3  Si
    -0.995415735532036 3.901291522428453 0.0  1  4  H
    -2.3629576755320363 0.8523917424284527 -0.0  3  5  Si
    -3.8461453055320365 1.095222102428453 -0.0  1  6  H
    -1.164566815532036 -1.0608844175715473 -0.0  3  7  Si
    -1.9305922755320362 -2.5936011575715474 -0.0  2  8  N
    -1.340345725532036 -3.550814187571547 0.0  1  9  H
    -2.982214595532036 -2.6740613875715473 -0.0  1  10  H
    0.551633244467964 -1.0057101075715473 0.0  2  11  N
    1.6266558644679638 0.3246287324284528 -0.0  3  12  Si
    3.2353291844679637 0.30581847242845284 -0.0  4  13  O
    5.6164483 -7.44953905 0.0  1  14  H
    4.58206954 -7.2320376 0.0  2  15  N
    3.29666389 -8.492636 0.0  3  16  Si
    3.80117524 -9.90371886 -0.0  1  17  H
    1.65934232 -8.01362137 0.0  2  18  N
    1.68097912 -6.20463398 -0.0  3  19  Si
    0.54543521 -4.28636135 0.0  3  20  Si
    -1.03431493 -3.94450034 0.0  4  21  O
    1.73226934 -2.87719605 0.0  2  22  N
    1.20957366 -1.92961761 -0.0  1  23  H
    3.50853448 -2.77677601 0.0  3  24  Si
    4.13684451 -1.17938608 0.0  2  25  N
    3.54296161 -0.26248101 0.0  1  26  H
    5.18364407 -1.05231197 -0.0  1  27  H
    4.63288658 -4.07521596 -0.0  2  28  N
    3.79410501 -5.58634043 0.0  3  29  Si
%endblock AtomicCoordinatesAndAtomicSpecies

%include ../../../../Defaults.fdf