# mpirun -np 8 siesta-5 < 1G.fdf > 1G.out

SystemLabel      1G

NumberOfAtoms    66

NumberOfSpecies  5
%block ChemicalSpeciesLabel
    1   15  P ../../../Pseudos/VW/P/P.psf
    2    8  O ../../../Pseudos/VW/O/O.psf
    3    6  C ../../../Pseudos/VW/C/C.psf
    4    1  H ../../../Pseudos/VW/H/H.psf
    5    7  N ../../../Pseudos/VW/N/N.psf
%endblock ChemicalSpeciesLabel

############################################
# This overrides Defaults.fdf configuration
############################################
XC.Functional               VDW
XC.Authors                  DRSLL

MD.Steps                    1000

%block Geometry.Constraints
    atom [6]
%endblock

AtomicCoordinatesFormat NotScaledCartesianAng
%block AtomicCoordinatesAndAtomicSpecies
     3.039000000    -8.473000000     3.414000000    1
     3.057000000    -9.052000000     4.776000000    2
     1.810000000    -7.763000000     2.995000000    2
     4.337000000    -7.542000000     3.330000000    2
     5.627000000    -8.157000000     3.190000000    3
     5.654000000    -8.750000000     2.276000000    4
     5.805000000    -8.805000000     4.048000000    4
     6.713000000    -7.099000000     3.130000000    3
     7.693000000    -7.576000000     3.118000000    4
     6.632000000    -6.405000000     1.860000000    2
     6.958000000    -5.037000000     2.040000000    3
     7.745000000    -4.701000000     1.365000000    4
     5.785000000    -4.219000000     1.620000000    5
     4.470000000    -4.580000000     1.610000000    3
     4.172000000    -5.550000000     1.980000000    4
     3.676000000    -3.650000000     1.190000000    5
     4.530000000    -2.594000000     0.910000000    3
     4.301000000    -1.290000000     0.430000000    3
     3.084000000    -0.815000000     0.130000000    5
     2.981000000     0.130000000    -0.211000000    4
     2.270000000    -1.402000000     0.245000000    4
     5.377000000    -0.499000000     0.260000000    5
     6.579000000    -0.971000000     0.560000000    3
     7.448000000    -0.343000000     0.431000000    4
     6.922000000    -2.156000000     1.020000000    5
     5.825000000    -2.930000000     1.170000000    3
     6.601000000    -5.985000000     4.170000000    3
     5.567000000    -5.684000000     4.339000000    4
     7.355000000    -4.850000000     3.500000000    3
     7.493000000    -4.036000000     4.211000000    4
     8.328000000    -5.208000000     3.164000000    4
     7.183000000    -6.339000000     5.430000000    2
     7.129000000    -5.660000000     6.106000000    4
     3.039000000     8.473000000    -3.414000000    1
     3.057000000     9.052000000    -4.776000000    2
     1.810000000     7.763000000    -2.995000000    2
     4.337000000     7.542000000    -3.330000000    2
     5.627000000     8.157000000    -3.190000000    3
     5.654000000     8.750000000    -2.276000000    4
     5.805000000     8.805000000    -4.048000000    4
     6.713000000     7.099000000    -3.130000000    3
     7.693000000     7.576000000    -3.118000000    4
     6.632000000     6.405000000    -1.860000000    2
     6.958000000     5.037000000    -2.040000000    3
     7.741000000     4.714000000    -1.354000000    4
     5.785000000     4.219000000    -1.620000000    5
     4.517000000     4.743000000    -1.670000000    3
     4.357000000     5.742000000    -2.047000000    4
     3.456000000     4.018000000    -1.300000000    3
     2.049000000     4.539000000    -1.330000000    3
     1.788000000     4.823000000    -2.349000000    4
     1.366000000     3.763000000    -0.983000000    4
     1.969000000     5.410000000    -0.679000000    4
     3.606000000     2.659000000    -0.830000000    3
     2.687000000     1.916000000    -0.470000000    2
     4.912000000     2.218000000    -0.820000000    5
     5.081000000     1.199000000    -0.471000000    4
     6.031000000     2.941000000    -1.200000000    3
     7.148000000     2.461000000    -1.150000000    2
     6.601000000     5.985000000    -4.170000000    3
     5.567000000     5.684000000    -4.339000000    4
     7.355000000     4.850000000    -3.500000000    3
     7.493000000     4.036000000    -4.211000000    4
     8.328000000     5.208000000    -3.164000000    4
     7.183000000     6.339000000    -5.430000000    2
     7.129000000     5.660000000    -6.106000000    4
%endblock AtomicCoordinatesAndAtomicSpecies

#############
# Unit Cell
#############
#LatticeConstant 1.0 Ang
#%block LatticeVectors
#    11.967244    0.000000    0.000000
#    0.000000   11.966144    0.000000
#    0.000000    0.000000   11.191744
#%endblock LatticeVectors

%include ../../../../Defaults.fdf