# mpirun -np 4 siesta-4.1.5 < AT.fdf > AT.out &

SystemLabel      AT

NumberOfAtoms    30

NumberOfSpecies  4
%block ChemicalSpeciesLabel
    1    1  H
    2    7  N
    3   14  Si
    4    8  O
%endblock ChemicalSpeciesLabel

############################################
# This overrides Defaults.fdf configuration
############################################
MD.TypeOfRun                Verlet # CG, Verlet
MD.Steps                    0
MaxSCFIterations            300

AtomicCoordinatesFormat NotScaledCartesianAng
%block AtomicCoordinatesAndAtomicSpecies
    2.28494382 -5.19529124 0.0  1  1  H
    1.37433094 -4.6647107 0.0  2  2  N
    -0.21830245 -5.49458215 0.0  3  3  Si
    -0.17484108 -6.98516892 0.0  1  4  H
    -1.66171682 -4.58600741 0.0  2  5  N
    -1.09026419 -2.87456374 0.0  3  6  Si
    -1.53038332 -0.70765692 0.0  3  7  Si
    -3.14415959 -0.09186471 0.0  2  8  N
    -3.40268075 0.95848335 0.0  1  9  H
    -3.95073599 -0.76720972 0.0  1  10  H
    -0.17836637 0.41349951 0.0  2  11  N
    1.49520211 -0.0473996 0.0  3  12  Si
    2.45603905 1.10727302 0.0  1  13  H
    2.30451743 -1.58574382 0.0  2  14  N
    1.10725559 -2.84610319 0.0  3  15  Si
    0.1890890294066473 10.280621554767205 0.0  1  16  H
    -0.6196216505933527 9.588415674767203 0.0  2  17  N
    -2.2762114905933526 10.301535774767203 0.0  3  18  Si
    -2.1793463205933525 11.812260984767203 0.0  1  19  H
    -4.002367840593353 8.958487644767203 0.0  3  20  Si
    -6.356822090593353 8.950500714767204 0.0  3  21  Si
    -6.919240210593353 9.684990364767202 -1.20183078  1  22  H
    -6.656635840593353 7.471409584767203 -0.08618332  1  23  H
    -6.919352670593352 9.515333174767203 1.28814761  1  24  H
    -3.072977200593353 6.887916414767203 0.0  3  25  Si
    -4.0224455605933525 5.599380284767204 0.0  4  26  O
    -1.2820323305933528 6.714180944767204 0.0  2  27  N
    -0.9510409705933527 5.6818239647672035 0.0  1  28  H
    0.02642588940664725 7.908727364767203 0.0  3  29  Si
    1.592362819406647 7.641480514767204 0.0  4  30  O
%endblock AtomicCoordinatesAndAtomicSpecies

%include ../../../../Defaults.fdf
