SystemLabel      AT

NumberOfAtoms    30

NumberOfSpecies  4
%block ChemicalSpeciesLabel
    1    1  H
    2    7  N
    3   14  Si
    4    8  O
%endblock ChemicalSpeciesLabel

# Single point calculation
MD.TypeOfRun                CG
MD.Steps                    0
SCF.MustConverge            F # In case it does not. There can be 2 very close atoms

AtomicCoordinatesFormat NotScaledCartesianAng
%block AtomicCoordinatesAndAtomicSpecies
2.582377650    -5.776830440   0.000000000       1
1.654759240    -5.269361980   0.000000000       2
0.063128840    -6.101704590   0.000000000       3
0.119223240    -7.596849500   0.000000000       1
-1.376892050   -5.182603740   0.000000000       2
-0.824371900   -3.460866440   0.000000000       3
-1.170571480   -1.270002100   0.000000000       3
-2.706933680   -0.417515780   0.000000000       2
-2.754569660   0.634858620    0.000000000       1
-3.637675640   -0.909967860   0.000000000       1
0.218091790    -0.234193970   0.000000000       2
1.872004100    -0.697162300   0.000000000       3
2.828001130    0.461464770    0.000000000       1
2.648150080    -2.255024470   0.000000000       2
1.391921380    -3.454727220   0.000000000       3
1.874045924    6.234551491    0.000000000       2
0.546674404    7.444755791    0.000000000       3
1.186675674    8.806074031    0.000000000       1
-1.539071536   6.774224441    0.000000000       3
-3.568634136   7.904340631    0.000000000       3
-3.414398366   9.064570841    0.940305280       1
-4.554568856   6.882420011    0.512613700       1
-3.984849096   8.380566481    -1.366678340      1
-1.472576116   4.500247821    0.000000000       3
-2.511624846   3.307188321    0.000000000       4
0.184415464    3.866272631    0.000000000       2
0.166398094    2.803827801    0.000000000       1
1.808018534    4.463342841    0.000000000       3
3.003034704    3.448917641    0.000000000       4
2.874083294    6.580058591    0.000000000       1
%endblock AtomicCoordinatesAndAtomicSpecies

%include ../../../Defaults.fdf
