# mpirun -np 4 siesta-4.1.5 < AT.fdf > AT.out &

SystemLabel      AT

NumberOfAtoms    30

NumberOfSpecies  4
%block ChemicalSpeciesLabel
    1    1  H
    2    7  N
    3   14  Si
    4    8  O
%endblock ChemicalSpeciesLabel

############################################
# This overrides Defaults.fdf configuration
############################################
MD.TypeOfRun                Verlet # CG, Verlet
MD.Steps                    0
MaxSCFIterations            300

AtomicCoordinatesFormat NotScaledCartesianAng
%block AtomicCoordinatesAndAtomicSpecies
    2.28494382 -5.19529124 0.0  1  1  H
    1.37433094 -4.6647107 0.0  2  2  N
    -0.21830245 -5.49458215 0.0  3  3  Si
    -0.17484108 -6.98516892 0.0  1  4  H
    -1.66171682 -4.58600741 0.0  2  5  N
    -1.09026419 -2.87456374 0.0  3  6  Si
    -1.53038332 -0.70765692 0.0  3  7  Si
    -3.14415959 -0.09186471 0.0  2  8  N
    -3.40268075 0.95848335 0.0  1  9  H
    -3.95073599 -0.76720972 0.0  1  10  H
    -0.17836637 0.41349951 0.0  2  11  N
    1.49520211 -0.0473996 0.0  3  12  Si
    2.45603905 1.10727302 0.0  1  13  H
    2.30451743 -1.58574382 0.0  2  14  N
    1.10725559 -2.84610319 0.0  3  15  Si
    0.4764514790012195 8.219514754403908 0.0  1  16  H
    -0.33225920099878054 7.527308874403908 0.0  2  17  N
    -1.9888490409987805 8.240428974403908 0.0  3  18  Si
    -1.8919838709987804 9.751154184403907 0.0  1  19  H
    -3.7150053909987806 6.897380844403908 0.0  3  20  Si
    -6.06945964099878 6.889393914403908 0.0  3  21  Si
    -6.631877760998781 7.623883564403908 -1.20183078  1  22  H
    -6.369273390998781 5.410302784403908 -0.08618332  1  23  H
    -6.63199022099878 7.454226374403908 1.28814761  1  24  H
    -2.7856147509987808 4.826809614403908 0.0  3  25  Si
    -3.7350831109987808 3.5382734844039074 0.0  4  26  O
    -0.9946698809987806 4.653074144403908 0.0  2  27  N
    -0.6636785209987806 3.6207171644039082 0.0  1  28  H
    0.31378833900121944 5.847620564403908 0.0  3  29  Si
    1.8797252690012194 5.580373714403908 0.0  4  30  O
%endblock AtomicCoordinatesAndAtomicSpecies

%include ../../../../Defaults.fdf
