SystemLabel      AT

NumberOfAtoms    30

NumberOfSpecies  4
%block ChemicalSpeciesLabel
    1    1  H
    2    7  N
    3   14  Si
    4    8  O
%endblock ChemicalSpeciesLabel

# Single point calculation
MD.TypeOfRun                CG
MD.Steps                    0
SCF.MustConverge            F # In case it does not. There can be 2 very close atoms

AtomicCoordinatesFormat NotScaledCartesianAng
%block AtomicCoordinatesAndAtomicSpecies
2.582377650    -5.776830440   0.000000000       1
1.654759240    -5.269361980   0.000000000       2
0.063128840    -6.101704590   0.000000000       3
0.119223240    -7.596849500   0.000000000       1
-1.376892050   -5.182603740   0.000000000       2
-0.824371900   -3.460866440   0.000000000       3
-1.170571480   -1.270002100   0.000000000       3
-2.706933680   -0.417515780   0.000000000       2
-2.754569660   0.634858620    0.000000000       1
-3.637675640   -0.909967860   0.000000000       1
0.218091790    -0.234193970   0.000000000       2
1.872004100    -0.697162300   0.000000000       3
2.828001130    0.461464770    0.000000000       1
2.648150080    -2.255024470   0.000000000       2
1.391921380    -3.454727220   0.000000000       3
1.888441637    5.388520112    0.000000000       2
0.561070117    6.598724412    0.000000000       3
1.201071387    7.960042652    0.000000000       1
-1.524675823   5.928193062    0.000000000       3
-3.554238423   7.058309252    0.000000000       3
-3.400002653   8.218539462    0.940305280       1
-4.540173143   6.036388632    0.512613700       1
-3.970453383   7.534535102    -1.366678340      1
-1.458180403   3.654216442    0.000000000       3
-2.497229133   2.461156942    0.000000000       4
0.198811177    3.020241252    0.000000000       2
0.180793807    1.957796422    0.000000000       1
1.822414247    3.617311462    0.000000000       3
3.017430417    2.602886262    0.000000000       4
2.888479007    5.734027212    0.000000000       1
%endblock AtomicCoordinatesAndAtomicSpecies

%include ../../../Defaults.fdf
