SystemLabel      Verlet

NumberOfAtoms    195

NumberOfSpecies  5
%block ChemicalSpeciesLabel
    1   14  Si
    2    1  H
    3    8  O
    4    7  N
    5   15  P
%endblock ChemicalSpeciesLabel

AtomicCoordinatesFormat NotScaledCartesianAng
%block AtomicCoordinatesAndAtomicSpecies
   -1.68640647   17.31045941    2.97956289   1       1  Si
   -2.37661998   16.39606442    3.99461397   2       2  H
   -1.14486518   18.56027044    3.65487287   2       3  H
    0.26942777   16.15023709    2.17761405   1       4  Si
    1.14583308   16.22210780    3.40155265   2       5  H
    0.17371799   14.40295511    1.86675983   3       6  O
   -0.17314974   13.84296711    0.24952217   1       7  Si
    0.88047055   12.83727801   -0.08549009   2       8  H
    1.00274817   17.21663507    0.17261923   1       9  Si
    0.52658888   18.64980746    0.08546782   2      10  H
   -0.24168242   15.72638857   -1.20202802   1      11  Si
   -1.67074319   16.22092648   -1.36073131   2      12  H
    0.35161704   15.35365010   -2.54915712   2      13  H
   -0.33183863    2.12165313    0.06940106   4      14  N
   -1.91517830    1.36754388    0.58571160   1      15  Si
   -2.02543165   -0.08670650    0.25489535   2      16  H
   -3.20082120    2.28384702    1.21949289   4      17  N
   -2.66091901    3.99688032    1.38532065   1      18  Si
   -3.50387242    5.88870590    0.30073765   1      19  Si
   -5.01490449    6.41939009    0.17016222   3      20  O
   -2.09791386    7.01519097    0.10073007   4      21  N
   -2.37678417    8.06757067    0.16974854   2      22  H
   -0.34881450    6.68587588    0.14685390   1      23  Si
    0.63195503    8.05464200    0.40886141   4      24  N
    0.29965306    9.13079888    0.32756879   2      25  H
    1.67354804    7.89366420    0.34116474   2      26  H
    0.43756768    5.16407943   -0.12795994   4      27  N
   -0.59356881    3.88712856    0.33251963   1      28  Si
   -1.79704432   12.86095776    0.24445932   4      29  N
   -3.40940083   13.62068728    0.09373979   1      30  Si
   -3.16853553   15.09394945   -0.08492370   2      31  H
   -5.25550210   12.54212233   -0.71540485   1      32  Si
   -6.33855474   13.01138957    0.25527196   2      33  H
   -4.60373617   10.49493555    0.15093082   1      34  Si
   -5.74061938    9.19163582    0.25541176   4      35  N
   -5.45974337    8.14765590    0.25632162   2      36  H
   -6.77785729    9.36820320    0.16986370   2      37  H
   -2.95800831    9.98330781    0.33061420   4      38  N
   -1.61908461   11.05637889    0.28341382   1      39  Si
   -0.08975657   10.58206458    0.17083083   3      40  O
   -1.58408665   -2.51455169   -1.27752379   3      41  O
   -0.39046354   -2.00988070   -2.46574698   1      42  Si
   -0.96829280   -0.95455320   -3.39952301   2      43  H
    0.00026329   -3.20902903   -3.31464660   2      44  H
    1.67716648   -1.23992051   -1.52877957   1      45  Si
    2.64283127   -1.56057163   -2.63732053   2      46  H
    1.84550702    0.51900853   -1.27204085   3      47  O
    1.34565741    1.24575551    0.22409182   1      48  Si
    2.24399898    2.43350948    0.47449025   2      49  H
    2.20710166   -2.20892284    0.56798742   1      50  Si
    1.58500337   -3.55915260    0.76466244   2      51  H
    1.13616650   -0.52952578    1.82136967   1      52  Si
   -0.35434253   -0.78138213    1.86928533   2      53  H
    1.58489179   -0.26021842    3.22903156   2      54  H
   -2.90486481   17.78336032    1.78578474   3      55  O
   -4.22708642   18.73194036    3.82240209   3      56  O
   -4.04090126   19.03157955    2.12012633   5      57  P
   -3.43400298   20.46688032    1.87227149   3      58  O
   -5.36568011   18.82170544    1.27918380   3      59  O
    2.72695818   17.17522303   -0.08558360   3      60  O
    3.95880861   -2.16795141    0.77108199   3      61  O
    4.33450095   -2.23579798    2.49860628   5      62  P
    5.71860454   -2.94626635    2.63502659   3      63  O
    3.08415043   -2.77366776    3.31038942   3      64  O
   -2.37601574   -2.94895756   -1.69911728   2      65  H
    3.01156923   17.70788243   -0.87408711   2      66  H
   -7.19353010   15.50539080    6.96812915   1      67  Si
   -7.21816231   14.31197004    7.90540806   2      68  H
   -7.57055802   16.74282467    7.73548422   2      69  H
   -4.91110464   15.85597177    6.24549391   1      70  Si
   -4.22576142   16.39489509    7.48066324   2      71  H
   -4.05208811   14.31576447    5.94656569   3      72  O
   -3.98569823   13.70534419    4.31548936   1      73  Si
   -2.55195065   13.53170675    3.90994968   2      74  H
   -5.18675560   17.28185544    4.28875180   1      75  Si
   -6.60296349   17.78184539    4.41959830   2      76  H
   -5.18105375   15.28121810    2.95913875   1      77  Si
   -6.60325253   14.83264849    2.72009561   2      78  H
   -4.48879435   15.26819169    1.61441442   2      79  H
    2.80543419    3.95916098    4.30003302   4      80  N
    2.06234599    2.46114880    3.79052679   1      81  Si
    2.99420667    1.30134839    3.65429649   2      82  H
    0.35618003    2.38012309    3.43520171   4      83  N
   -0.32193010    3.84386247    4.14527218   1      84  Si
   -2.31340904    5.02798742    3.56204231   1      85  Si
   -3.60992705    4.85827145    4.50472891   3      86  O
   -1.66376609    6.78219880    3.56160657   4      87  N
   -2.46575857    7.46079883    3.82393222   2      88  H
   -0.06470582    7.46525855    3.83926341   1      89  Si
    0.00048747    9.09706382    4.40805903   4      90  N
   -0.82984975    9.84340056    4.33628245   2      91  H
    0.96641092    9.54017568    4.42023785   2      92  H
    1.38261357    6.56474076    3.72874736   4      93  N
    1.49221510    5.17586377    4.77902950   1      94  Si
   -4.64832077   11.93870736    4.27170238   4      95  N
   -6.41231652   11.64049072    4.30409904   1      96  Si
   -7.04293884   13.01105941    4.25065935   2      97  H
   -7.42185817    9.70693556    3.63578591   1      98  Si
   -8.53887119    9.62718176    4.67489309   2      99  H
   -5.65454054    8.36352105    4.33677371   1     100  Si
   -5.76723636    6.64759108    4.53616901   4     101  N
   -4.90634609    5.97011477    4.58027520   2     102  H
   -6.69196354    6.15805163    4.42008658   2     103  H
   -4.02117317    8.91071973    4.32967892   4     104  N
   -3.49012054   10.53430573    4.33502566   1     105  Si
   -1.93767877   10.92988353    4.33434491   3     106  O
    4.40345192   -0.52217657    2.88510756   3     107  O
    5.13817712    0.54667427    1.67133763   1     108  Si
    4.05117632    0.95303081    0.68136339   2     109  H
    6.24966141   -0.17308690    0.93548760   2     110  H
    6.26649768    2.46088111    2.59647733   1     111  Si
    7.23505521    2.85651129    1.50891393   2     112  H
    5.36937952    3.98550151    2.89449160   3     113  O
    4.65578835    4.18521943    4.47636194   1     114  Si
    4.75360944    5.64051226    4.84501182   2     115  H
    7.23193644    1.80259176    4.68405720   1     116  Si
    7.65803586    0.34913533    4.75986151   2     117  H
    5.44235911    2.55376689    6.03000955   1     118  Si
    4.31170781    1.55907835    6.11919299   2     119  H
    5.72147208    3.12242182    7.39386154   2     120  H
   -8.36854686   15.18098358    5.69348388   3     121  O
  -10.09500549   15.47111249    5.97286435   5     122  P
  -10.47321094   16.99779459    5.77990402   3     123  O
  -11.17093630   14.57536998    5.18980774   3     124  O
    8.53948316    2.94813492    4.93423326   3     125  O
    8.90076777    3.18035844    6.62790189   5     126  P
   10.46560102    3.38388291    6.79954775   3     127  O
    8.18958601    2.00309426    7.47374153   3     128  O
  -10.58175262   10.85799337   10.84256325   1     129  Si
   -9.85873940    9.80171410   11.64506263   2     130  H
  -11.53218094   11.62405425   11.72971745   2     131  H
   -8.97039620   12.57872461   10.18913709   1     132  Si
   -8.80321710   13.35811356   11.47541757   2     133  H
   -7.31239526   11.96999207    9.85582100   3     134  O
   -7.13146646   11.28854147    8.25025808   1     135  Si
   -5.89677633   11.88440948    7.64894235   2     136  H
  -10.12624687   13.49899997    8.29061717   1     137  Si
  -11.58511540   13.20798946    8.55238634   2     138  H
   -9.12832041   11.77780071    6.98453268   1     139  Si
  -10.03545639   10.58182448    6.80117742   2     140  H
   -8.71441991   12.23159751    5.60933522   2     141  H
    3.94201585    7.42462107    7.99445828   4     142  N
    4.17739970    5.63557148    8.15329902   1     143  Si
    5.55172665    5.20502044    8.50231303   2     144  H
    2.90584721    4.53805364    7.89961979   4     145  N
    1.57331324    5.46989958    7.12480926   1     146  Si
   -0.65811948    5.67657439    7.89886159   1     147  Si
   -1.67139194    4.51261529    8.32913107   3     148  O
   -1.21604082    7.38128079    7.75434434   4     149  N
   -2.28962785    7.46077855    7.90388290   2     150  H
   -0.33409107    8.94149506    7.65193474   1     151  Si
   -1.32047303   10.28839586    7.96658998   4     152  N
   -2.42863502   10.25149961    8.11794176   2     153  H
   -0.88812968   11.25143686    7.94432053   2     154  H
    1.38862927    9.14060287    7.66505978   4     155  N
    2.22411139    7.66812918    7.52926337   1     156  Si
   -6.71421171    9.44963107    8.31899915   4     157  N
   -7.94520629    8.16280590    8.49840689   1     158  Si
   -9.24460132    8.84754649    8.84005646   2     159  H
   -7.74038630    6.06486927    7.64472917   1     160  Si
   -8.45104024    5.29095015    8.75524770   2     161  H
   -5.46900922    5.98948537    8.14938143   1     162  Si
   -4.59078440    4.51619721    8.35995497   4     163  N
   -3.51858849    4.51052413    8.41452607   2     164  H
   -5.02022769    3.55692601    8.32968905   2     165  H
   -4.42181388    7.36618122    8.11760917   4     166  N
   -4.95530270    8.98298932    8.23979455   1     167  Si
   -3.96161836   10.23528759    8.32909928   3     168  O
  -13.64358640    8.58871979   11.98388852   2     169  H
    7.84063606    4.68007290    6.79946576   3     170  O
    8.11989745    6.04604239    5.72523156   1     171  Si
    7.39417739    5.81143171    4.41945455   2     172  H
    9.59553256    6.24520647    5.44039868   2     173  H
    7.67992434    8.27196848    6.55904119   1     174  Si
    8.27517870    9.10759293    5.44058983   2     175  H
    6.07571904    9.01759944    6.80205274   3     176  O
    5.22246021    8.78329704    8.29548975   1     177  Si
    4.31531014    9.97498990    8.49963582   2     178  H
    8.75071035    8.38910589    8.69442120   1     179  Si
    9.85866659    7.37343081    8.84011535   2     180  H
    6.76623658    8.06916321    9.96464882   1     181  Si
    6.51395164    6.59233662   10.19994749   2     182  H
    6.51466311    8.84804293   11.22101270   2     183  H
  -11.52905730    9.97732429    9.60830259   3     184  O
  -12.85504811    9.10632278   11.64064247   3     185  O
  -13.06565407    9.39037438    9.94463337   5     186  P
  -14.08405598   10.57863311    9.69069349   3     187  O
  -13.29286760    8.07148574    9.09893435   3     188  O
  -10.03577598   15.17470963    7.65084983   3     189  O
    9.24555027   10.06003461    8.84133877   3     190  O
    9.55063124   10.41718745   10.50099285   5     191  P
   10.73540436   11.44582971   10.62517770   3     192  O
    9.59473324    9.02651674   11.30021868   3     193  O
    8.01339947   11.10516034   10.79522479   3     194  O
    8.00986215   11.96984200   10.28638816   2     195  H

%endblock AtomicCoordinatesAndAtomicSpecies

%include ../defaults2.fdf




