SystemLabel      GGG

NumberOfAtoms    195

NumberOfSpecies  5
%block ChemicalSpeciesLabel
    1   14  Si
    2    1  H
    3    8  O
    4    7  N
    5   15  P
%endblock ChemicalSpeciesLabel

AtomicCoordinatesFormat NotScaledCartesianAng
%block AtomicCoordinatesAndAtomicSpecies
13.305677 20.219883 6.169551 1
12.551605 19.206401 7.016196 2
13.799253 21.298472 7.110196 2
15.364182 19.162353 5.438855 1
16.084551 19.228352 6.762482 2
15.291559 17.421877 5.090905 3
14.939978 16.927901 3.459403 1
15.996463 15.948283 3.069847 2
16.205067 20.292077 3.498435 1
15.732582 21.729404 3.513469 2
14.901896 18.873614 2.094137 1
13.494543 19.412596 1.939144 2
15.474681 18.540471 0.730685 2
14.725036 5.216855 3.367589 4
13.137526 4.391305 3.629885 1
13.146115 2.928038 3.312092 2
11.752960 5.281236 4.095245 4
12.287594 6.922343 4.639049 1
11.581074 8.965342 3.752994 1
10.109932 9.570281 3.514357 3
13.027556 10.081730 3.694447 4
12.746233 11.126825 3.602954 2
14.778790 9.778019 3.575275 1
15.776744 11.160453 3.512469 4
15.467019 12.241805 3.514164 2
16.813902 10.976798 3.426438 2
15.536824 8.227423 3.481320 4
14.403304 6.966858 3.721921 1
13.321885 15.956227 3.461171 4
11.719157 16.728598 3.563934 1
11.965378 18.208116 3.674404 2
9.862292 15.724842 2.723357 1
8.709867 16.202802 3.607315 2
10.511293 13.607855 3.430981 1
9.381185 12.305622 3.569124 4
9.655482 11.251046 3.583951 2
8.347137 12.501742 3.513553 2
12.158346 13.086862 3.497832 4
13.493884 14.158367 3.508691 1
15.028884 13.708394 3.513910 3
13.535164 0.688844 2.020148 3
14.713625 1.204155 0.824351 1
14.068062 2.242007 -0.084481 2
15.117848 0.000033 -0.000010 2
16.800349 1.956698 1.730385 1
17.760994 1.638498 0.611978 2
16.960277 3.704299 2.023044 3
16.442996 4.433636 3.502717 1
17.232057 5.692073 3.691824 2
17.319792 0.958605 3.813474 1
16.777385 -0.433501 3.990904 2
16.307234 2.667707 5.098247 1
14.826794 2.456263 5.349404 2
16.993413 2.963245 6.400772 2
12.132105 20.862869 5.006653 3
10.807175 21.810318 7.025235 3
11.030585 22.071326 5.359726 5
11.689763 23.455475 5.094886 3
9.755009 21.899803 4.480427 3
17.927171 20.263219 3.162282 3
19.070251 1.032678 4.042141 3
19.473895 0.960420 5.713399 5
20.833243 0.255070 5.882470 3
18.282510 0.430060 6.581959 3
19.689403 2.589392 6.057418 3
12.715662 0.311865 1.600467 2
18.138852 20.627313 2.261440 2
3.573822 13.605709 14.724914 1
4.425252 12.651502 15.535874 2
2.614045 14.338503 15.627749 2
5.098918 15.377330 13.968343 1
5.254688 16.123163 15.279374 2
6.761631 14.745042 13.688698 3
7.110681 14.286826 12.041742 1
8.343791 15.006162 11.582997 2
4.161247 16.488929 11.982813 1
2.671984 16.257086 12.089533 2
5.224679 14.815143 10.665250 1
4.303736 13.621708 10.538999 2
5.708516 15.217026 9.292533 2
18.468690 11.176068 12.050390 4
18.884754 9.424253 12.188438 1
20.305495 9.052269 11.937071 2
17.665461 8.245015 12.466708 4
16.181940 9.128273 12.947886 1
13.992383 9.024397 12.196576 1
13.008231 7.760947 12.113207 3
13.301661 10.702859 12.213034 4
12.213901 10.692107 12.199091 2
14.040741 12.318125 12.068351 1
12.948569 13.614038 11.955029 4
11.833931 13.565056 12.034397 2
13.354590 14.580972 11.838897 2
15.732862 12.659720 12.022106 4
16.685955 11.272397 12.292716 1
7.635988 12.469678 12.028744 4
6.491289 11.096494 12.135514 1
5.097127 11.640112 12.376563 2
6.976532 9.057056 11.256860 1
6.239616 8.104935 12.200997 2
9.190906 9.137381 11.964596 1
10.164521 7.715972 12.151064 4
11.248949 7.757422 12.200925 2
9.759386 6.739536 12.113339 2
10.118708 10.601092 12.058606 4
9.432269 12.172254 12.061923 1
10.282732 13.535147 12.112995 3
1.363350 10.557932 15.821258 2
22.448818 9.705690 9.428545 1
21.236402 9.444528 8.558736 2
23.642033 10.016719 8.561026 2
22.091806 12.010095 10.405703 1
22.623143 12.713436 9.174049 2
20.482917 12.841264 10.623111 3
19.674797 12.640995 12.140680 1
18.721645 13.796087 12.288787 2
23.180219 12.422763 12.504248 1
24.369475 11.529868 12.729393 2
21.247640 12.023254 13.809728 1
21.006997 10.520086 13.958699 2
21.006548 12.753642 15.100564 2
2.636565 12.590242 13.606912 3
1.402998 11.551573 15.703029 3
1.178423 11.826932 13.983992 5
0.000000 12.844193 13.694368 3
1.053500 10.522441 13.083610 3
23.556996 14.138228 12.641494 3
23.747081 14.565985 14.299124 5
24.789071 15.693176 14.480799 3
23.908002 13.278308 15.182042 3
22.234874 15.177925 14.656014 3
22.127754 16.042600 14.163625 2
7.426483 18.697984 10.454539 1
7.590408 17.476618 11.337281 2
7.205416 19.923208 11.314849 2
9.718782 19.045577 9.582466 1
10.296237 19.521195 10.899987 2
10.629927 17.507918 9.301300 3
10.617944 16.937180 7.646524 1
12.030852 16.707714 7.191862 2
9.660550 20.522881 7.594752 1
8.328851 21.213284 7.721052 2
9.465503 18.549088 6.286058 1
7.996926 18.194086 6.146356 2
10.084279 18.617450 4.912151 2
17.297571 7.303023 7.587194 4
16.512438 5.697366 7.822968 1
17.413983 4.532537 7.606017 2
14.839608 5.562759 8.149202 4
14.260634 7.199861 8.656634 1
12.563023 8.492667 7.726709 1
10.986089 8.191581 7.725128 3
13.068663 10.259945 7.814371 4
12.219109 10.946782 7.811405 2
14.673916 11.016554 7.719332 1
14.706048 12.717514 7.748592 4
13.800812 13.366549 7.727448 2
15.644175 13.192635 7.636340 2
16.193464 10.196230 7.655569 4
15.979482 8.509957 7.850879 1
9.868660 15.205212 7.618014 4
8.117769 14.892183 7.762249 1
7.455073 16.229322 7.978727 2
7.174371 13.006680 6.903250 1
5.975184 12.760331 7.812756 2
8.917161 11.649290 7.624700 1
8.762035 9.952291 7.933255 4
9.608433 9.267289 7.892257 2
7.821236 9.482573 7.980893 2
10.560307 12.184730 7.611069 4
11.045132 13.823278 7.651029 1
12.567429 14.312285 7.724985 3
19.994940 3.891864 4.914813 1
18.651612 4.148047 4.264925 2
20.964071 3.469958 3.837652 2
20.942319 5.871587 5.925519 1
21.929870 6.379548 4.897263 2
19.951588 7.324294 6.234615 3
19.143150 7.642331 7.722486 1
19.155103 9.137281 7.900877 2
21.814007 5.302815 8.060240 1
22.236847 3.876609 8.250467 2
19.984733 6.117665 9.332643 1
18.833572 5.150876 9.561877 2
20.304913 6.809854 10.620784 2
5.979661 18.366398 9.480919 3
4.392468 18.191814 11.497388 3
4.377817 18.726173 9.851652 5
4.129957 20.259838 9.572404 3
3.427152 17.848963 8.957156 3
23.116593 6.465357 8.256951 3
23.519664 6.686251 9.931741 5
25.050099 6.896435 10.094443 3
22.854347 5.522407 10.792494 3
22.763788 8.191393 10.271260 3
%endblock AtomicCoordinatesAndAtomicSpecies

%block LatticeVectors
	100.0000    0.000000    0.000000
        0.000000    100.0000    0.000000
        0.000000    0.000000    20.00000
%endblock LatticeVectors

%include ../defaults.fdf


