# mpirun -np 4 siesta-4.1.5 < GC.fdf > GC.out &

SystemLabel      GC

NumberOfAtoms    29

NumberOfSpecies  4
%block ChemicalSpeciesLabel
    1    1  H
    2    7  N
    3   14  Si
    4    8  O
%endblock ChemicalSpeciesLabel

############################################
# This overrides Defaults.fdf configuration
############################################
MD.TypeOfRun                CG # CG, Verlet
MD.Steps                    0
MaxSCFIterations            600

AtomicCoordinatesFormat NotScaledCartesianAng
%block AtomicCoordinatesAndAtomicSpecies
    1.0988054413663304 3.501639316679507 -0.0  1  1  H
    0.3923187113663304 2.711603136679507 -0.0  2  2  N
    -1.3379681986336696 3.152967046679507 0.0  3  3  Si
    -1.4937478786336695 4.642959306679507 0.0  1  4  H
    -2.86128981863367 1.5940595266795068 -0.0  3  5  Si
    -4.34447744863367 1.836889886679507 -0.0  1  6  H
    -1.6628989586336695 -0.3192166333204932 -0.0  3  7  Si
    -2.42892441863367 -1.8519333733204932 -0.0  2  8  N
    -1.8386778686336696 -2.809146403320493 0.0  1  9  H
    -3.4805467386336697 -1.9323936033204931 -0.0  1  10  H
    0.05330110136633039 -0.26404232332049327 0.0  2  11  N
    1.1283237213663304 1.0662965166795069 -0.0  3  12  Si
    2.73699704136633 1.047486256679507 -0.0  4  13  O
    5.6164483 -7.44953905 0.0  1  14  H
    4.58206954 -7.2320376 0.0  2  15  N
    3.29666389 -8.492636 0.0  3  16  Si
    3.80117524 -9.90371886 -0.0  1  17  H
    1.65934232 -8.01362137 0.0  2  18  N
    1.68097912 -6.20463398 -0.0  3  19  Si
    0.54543521 -4.28636135 0.0  3  20  Si
    -1.03431493 -3.94450034 0.0  4  21  O
    1.73226934 -2.87719605 0.0  2  22  N
    1.20957366 -1.92961761 -0.0  1  23  H
    3.50853448 -2.77677601 0.0  3  24  Si
    4.13684451 -1.17938608 0.0  2  25  N
    3.54296161 -0.26248101 0.0  1  26  H
    5.18364407 -1.05231197 -0.0  1  27  H
    4.63288658 -4.07521596 -0.0  2  28  N
    3.79410501 -5.58634043 0.0  3  29  Si
%endblock AtomicCoordinatesAndAtomicSpecies

%include ../../../../Defaults.fdf