SystemLabel      AT

NumberOfAtoms    30

NumberOfSpecies  4
%block ChemicalSpeciesLabel
    1    1  H
    2    7  N
    3   14  Si
    4    8  O
%endblock ChemicalSpeciesLabel

# Single point calculation
MD.TypeOfRun                CG
MD.Steps                    0
SCF.MustConverge            F # In case it does not. There can be 2 very close atoms

AtomicCoordinatesFormat NotScaledCartesianAng
%block AtomicCoordinatesAndAtomicSpecies
2.582377650    -5.776830440   0.000000000       1
1.654759240    -5.269361980   0.000000000       2
0.063128840    -6.101704590   0.000000000       3
0.119223240    -7.596849500   0.000000000       1
-1.376892050   -5.182603740   0.000000000       2
-0.824371900   -3.460866440   0.000000000       3
-1.170571480   -1.270002100   0.000000000       3
-2.706933680   -0.417515780   0.000000000       2
-2.754569660   0.634858620    0.000000000       1
-3.637675640   -0.909967860   0.000000000       1
0.218091790    -0.234193970   0.000000000       2
1.872004100    -0.697162300   0.000000000       3
2.828001130    0.461464770    0.000000000       1
2.648150080    -2.255024470   0.000000000       2
1.391921380    -3.454727220   0.000000000       3
1.842855213    8.067619480    0.000000000       2
0.515483693    9.277823780    0.000000000       3
1.155484963    10.639142020   0.000000000       1
-1.570262247   8.607292430    0.000000000       3
-3.599824847   9.737408620    0.000000000       3
-3.445589077   10.897638830   0.940305280       1
-4.585759567   8.715488000    0.512613700       1
-4.016039807   10.213634470   -1.366678340      1
-1.503766827   6.333315810    0.000000000       3
-2.542815557   5.140256310    0.000000000       4
0.153224753    5.699340620    0.000000000       2
0.135207383    4.636895790    0.000000000       1
1.776827823    6.296410830    0.000000000       3
2.971843993    5.281985630    0.000000000       4
2.842892583    8.413126580    0.000000000       1
%endblock AtomicCoordinatesAndAtomicSpecies

%include ../../../Defaults.fdf
