# mpirun -np 4 siesta-4.1.5 < GC.fdf > GC.out &

SystemLabel      GC

NumberOfAtoms    29

NumberOfSpecies  4
%block ChemicalSpeciesLabel
    1    1  H
    2    7  N
    3   14  Si
    4    8  O
%endblock ChemicalSpeciesLabel

############################################
# This overrides Defaults.fdf configuration
############################################
MD.TypeOfRun                CG # CG, Verlet
MD.Steps                    0
MaxSCFIterations            600

AtomicCoordinatesFormat NotScaledCartesianAng
%block AtomicCoordinatesAndAtomicSpecies
    1.0157500841827247 3.6252506140546825 0.0  1  1  H
    0.30926335418272477 2.8352144340546825 0.0  2  2  N
    -1.4210235558172752 3.2765783440546823 0.0  3  3  Si
    -1.5768032358172752 4.7665706040546825 0.0  1  4  H
    -2.9443451758172756 1.7176708240546825 0.0  3  5  Si
    -4.427532805817275 1.9605011840546827 0.0  1  6  H
    -1.7459543158172752 -0.19560533594531748 0.0  3  7  Si
    -2.5119797758172755 -1.7283220759453175 0.0  2  8  N
    -1.9217332258172752 -2.6855351059453176 0.0  1  9  H
    -3.5636020958172754 -1.8087823059453174 0.0  1  10  H
    -0.029754255817275255 -0.14043102594531753 0.0  2  11  N
    1.0452683641827247 1.1899078140546826 0.0  3  12  Si
    2.6539416841827244 1.1710975540546826 0.0  4  13  O
    5.6164483 -7.44953905 0.0  1  14  H
    4.58206954 -7.2320376 0.0  2  15  N
    3.29666389 -8.492636 0.0  3  16  Si
    3.80117524 -9.90371886 -0.0  1  17  H
    1.65934232 -8.01362137 0.0  2  18  N
    1.68097912 -6.20463398 -0.0  3  19  Si
    0.54543521 -4.28636135 0.0  3  20  Si
    -1.03431493 -3.94450034 0.0  4  21  O
    1.73226934 -2.87719605 0.0  2  22  N
    1.20957366 -1.92961761 -0.0  1  23  H
    3.50853448 -2.77677601 0.0  3  24  Si
    4.13684451 -1.17938608 0.0  2  25  N
    3.54296161 -0.26248101 0.0  1  26  H
    5.18364407 -1.05231197 -0.0  1  27  H
    4.63288658 -4.07521596 -0.0  2  28  N
    3.79410501 -5.58634043 0.0  3  29  Si
%endblock AtomicCoordinatesAndAtomicSpecies

%include ../../../../Defaults.fdf