SystemLabel      desoxy1

NumberOfAtoms    18

NumberOfSpecies  3
%block ChemicalSpeciesLabel
    1    1  H
    2    8  O
    3   14  Si
%endblock ChemicalSpeciesLabel

############################################
# This overrides Defaults.fdf configuration
############################################
MD.TypeOfRun                Verlet
MD.Steps                    2000
MD.Quench                   True

AtomicCoordinatesFormat NotScaledCartesianAng
%block AtomicCoordinatesAndAtomicSpecies
    -0.708734350     8.716229510     1.791211060    1
    -0.001147630     8.017532680     1.705140280    2
     0.832451180     7.731313970     3.216355310    3
    -0.089000950     6.957657560     4.127151870    1
     1.155146130     9.072092110     3.856709580    1
     2.869439980     6.705710850     2.607403000    3
     3.821810230     6.781892780     3.768138240    1
     2.753473430     5.022082700     2.150036130    2
     2.286012230     4.523505500     0.525965530    3
     3.289147510     3.523368300     0.001010740    1
     0.975396570     3.787598800     0.628322360    1
     3.438988870     7.886973430     0.651918570    3
     3.020022090     9.337733480     0.716934980    1
     2.199394050     6.493802650    -0.796428400    3
     0.784317480     6.963630740    -0.986963950    1
     2.844324290     6.340658440    -2.153186990    1
     5.152233150     7.751556870     0.356905090    2
     5.419235490     7.937240680    -0.581860130    1
%endblock AtomicCoordinatesAndAtomicSpecies

#############
# Unit Cell
#############
LatticeConstant 1.0 Ang
%block LatticeVectors
    14.329350    0.000000     0.000000
    0.000000     14.017284    0.000000
    0.000000     0.000000     14.628130
%endblock LatticeVectors

%include ../../Defaults.fdf
