# mpirun -np 4 siesta-4.1.5 < AT.fdf > AT.out &

SystemLabel      AT

NumberOfAtoms    30

NumberOfSpecies  4
%block ChemicalSpeciesLabel
    1    1  H
    2    7  N
    3   14  Si
    4    8  O
%endblock ChemicalSpeciesLabel

############################################
# This overrides Defaults.fdf configuration
############################################
MD.TypeOfRun                Verlet # CG, Verlet
MD.Steps                    0
MaxSCFIterations            200
SCF.MustConverge            F

AtomicCoordinatesFormat NotScaledCartesianAng
%block AtomicCoordinatesAndAtomicSpecies
    2.28494382 -5.19529124 0.0  1  1  H
    1.37433094 -4.6647107 0.0  2  2  N
    -0.21830245 -5.49458215 0.0  3  3  Si
    -0.17484108 -6.98516892 0.0  1  4  H
    -1.66171682 -4.58600741 0.0  2  5  N
    -1.09026419 -2.87456374 0.0  3  6  Si
    -1.53038332 -0.70765692 0.0  3  7  Si
    -3.14415959 -0.09186471 0.0  2  8  N
    -3.40268075 0.95848335 0.0  1  9  H
    -3.95073599 -0.76720972 0.0  1  10  H
    -0.17836637 0.41349951 0.0  2  11  N
    1.49520211 -0.0473996 0.0  3  12  Si
    2.45603905 1.10727302 0.0  1  13  H
    2.30451743 -1.58574382 0.0  2  14  N
    1.10725559 -2.84610319 0.0  3  15  Si
    -0.010562337268918198 11.712620725631059 0.0  1  16  H
    -0.8192730172689182 11.020414845631059 0.0  2  17  N
    -2.4758628572689183 11.733534945631058 0.0  3  18  Si
    -2.3789976872689182 13.244260155631057 0.0  1  19  H
    -4.202019207268918 10.390486815631057 0.0  3  20  Si
    -6.556473457268918 10.38249988563106 0.0  3  21  Si
    -7.1188915772689185 11.116989535631058 -1.20183078  1  22  H
    -6.8562872072689185 8.903408755631059 -0.08618332  1  23  H
    -7.119004037268918 10.947332345631057 1.28814761  1  24  H
    -3.272628567268918 8.319915585631058 0.0  3  25  Si
    -4.222096927268918 7.031379455631058 0.0  4  26  O
    -1.4816836972689182 8.146180115631058 0.0  2  27  N
    -1.1506923372689182 7.113823135631058 0.0  1  28  H
    -0.17322547726891824 9.340726535631058 0.0  3  29  Si
    1.3927114527310818 9.073479685631058 0.0  4  30  O
%endblock AtomicCoordinatesAndAtomicSpecies

#############
# Unit Cell
#############
LatticeConstant 1.0 Ang
%block LatticeVectors
    30.00000    0.000000    0.000000
    0.000000    45.00000    0.000000
    0.000000    0.000000    10.00000
%endblock LatticeVectors

%include ../../../../Defaults.fdf
