# mpirun -np 4 siesta-4.1.5 < GC.fdf > GC.out &

SystemLabel      GC

NumberOfAtoms    29

NumberOfSpecies  4
%block ChemicalSpeciesLabel
    1    1  H
    2    7  N
    3   14  Si
    4    8  O
%endblock ChemicalSpeciesLabel

############################################
# This overrides Defaults.fdf configuration
############################################
MD.TypeOfRun                Verlet # CG, Verlet
MD.Steps                    600
MD.Quench                   True

AtomicCoordinatesFormat NotScaledCartesianAng
%block AtomicCoordinatesAndAtomicSpecies
    1.0582484010637692 3.5620003642927784 -0.0  1  1  H
    0.3517616710637692 2.7719641842927785 -0.0  2  2  N
    -1.3785252389362308 3.213328094292778 0.0  3  3  Si
    -1.5343049189362308 4.703320354292778 0.0  1  4  H
    -2.901846858936231 1.654420574292778 -0.0  3  5  Si
    -4.385034488936231 1.8972509342927781 -0.0  1  6  H
    -1.7034559989362308 -0.2588555857072219 -0.0  3  7  Si
    -2.469481458936231 -1.791572325707222 -0.0  2  8  N
    -1.8792349089362308 -2.7487853557072217 0.0  1  9  H
    -3.5211037789362307 -1.872032555707222 -0.0  1  10  H
    0.012744061063769197 -0.2036812757072219 0.0  2  11  N
    1.0877666810637692 1.126657564292778 -0.0  3  12  Si
    2.696440001063769 1.1078473042927781 -0.0  4  13  O
    5.6164483 -7.44953905 0.0  1  14  H
    4.58206954 -7.2320376 0.0  2  15  N
    3.29666389 -8.492636 0.0  3  16  Si
    3.80117524 -9.90371886 -0.0  1  17  H
    1.65934232 -8.01362137 0.0  2  18  N
    1.68097912 -6.20463398 -0.0  3  19  Si
    0.54543521 -4.28636135 0.0  3  20  Si
    -1.03431493 -3.94450034 0.0  4  21  O
    1.73226934 -2.87719605 0.0  2  22  N
    1.20957366 -1.92961761 -0.0  1  23  H
    3.50853448 -2.77677601 0.0  3  24  Si
    4.13684451 -1.17938608 0.0  2  25  N
    3.54296161 -0.26248101 0.0  1  26  H
    5.18364407 -1.05231197 -0.0  1  27  H
    4.63288658 -4.07521596 -0.0  2  28  N
    3.79410501 -5.58634043 0.0  3  29  Si
%endblock AtomicCoordinatesAndAtomicSpecies

#############
# Unit Cell
#############
LatticeConstant 1.0 Ang
%block LatticeVectors
    18.545601    0.000000    0.000000
    0.000000   23.589929    0.000000
    0.000000    0.000000    9.854683
%endblock LatticeVectors

%include ../../../../Defaults.fdf