# mpirun -np 4 siesta-4.1.5 < AT.fdf > AT.out &

SystemLabel      AT

NumberOfAtoms    30

NumberOfSpecies  4
%block ChemicalSpeciesLabel
    1    1  H
    2    7  N
    3   14  Si
    4    8  O
%endblock ChemicalSpeciesLabel

############################################
# This overrides Defaults.fdf configuration
############################################
MD.TypeOfRun                Verlet # CG, Verlet
MD.Steps                    0
MaxSCFIterations            200
SCF.MustConverge            F

AtomicCoordinatesFormat NotScaledCartesianAng
%block AtomicCoordinatesAndAtomicSpecies
    2.28494382 -5.19529124 0.0  1  1  H
    1.37433094 -4.6647107 0.0  2  2  N
    -0.21830245 -5.49458215 0.0  3  3  Si
    -0.17484108 -6.98516892 0.0  1  4  H
    -1.66171682 -4.58600741 0.0  2  5  N
    -1.09026419 -2.87456374 0.0  3  6  Si
    -1.53038332 -0.70765692 0.0  3  7  Si
    -3.14415959 -0.09186471 0.0  2  8  N
    -3.40268075 0.95848335 0.0  1  9  H
    -3.95073599 -0.76720972 0.0  1  10  H
    -0.17836637 0.41349951 0.0  2  11  N
    1.49520211 -0.0473996 0.0  3  12  Si
    2.45603905 1.10727302 0.0  1  13  H
    2.30451743 -1.58574382 0.0  2  14  N
    1.10725559 -2.84610319 0.0  3  15  Si
    0.09819135095376308 10.932585036637573 0.0  1  16  H
    -0.7105193290462369 10.240379156637573 0.0  2  17  N
    -2.3671091690462367 10.953499256637572 0.0  3  18  Si
    -2.2702439990462366 12.464224466637571 0.0  1  19  H
    -4.093265519046237 9.610451126637571 0.0  3  20  Si
    -6.447719769046238 9.602464196637573 0.0  3  21  Si
    -7.010137889046238 10.336953846637572 -1.20183078  1  22  H
    -6.747533519046238 8.123373066637573 -0.08618332  1  23  H
    -7.0102503490462365 10.167296656637571 1.28814761  1  24  H
    -3.163874879046237 7.539879896637572 0.0  3  25  Si
    -4.113343239046237 6.2513437666375715 0.0  4  26  O
    -1.3729300090462369 7.366144426637572 0.0  2  27  N
    -1.0419386490462368 6.333787446637572 0.0  1  28  H
    -0.06447178904623696 8.560690846637572 0.0  3  29  Si
    1.501465140953763 8.293443996637572 0.0  4  30  O
%endblock AtomicCoordinatesAndAtomicSpecies

#############
# Unit Cell
#############
LatticeConstant 1.0 Ang
%block LatticeVectors
    30.00000    0.000000    0.000000
    0.000000    45.00000    0.000000
    0.000000    0.000000    10.00000
%endblock LatticeVectors

%include ../../../../Defaults.fdf
