# mpirun -np 4 siesta-4.1.5 < AT.fdf > AT.out &

SystemLabel      AT

NumberOfAtoms    30

NumberOfSpecies  4
%block ChemicalSpeciesLabel
    1    1  H
    2    7  N
    3   14  Si
    4    8  O
%endblock ChemicalSpeciesLabel

############################################
# This overrides Defaults.fdf configuration
############################################
MD.TypeOfRun                Verlet # CG, Verlet
MD.Steps                    0
MaxSCFIterations            300

AtomicCoordinatesFormat NotScaledCartesianAng
%block AtomicCoordinatesAndAtomicSpecies
    2.28494382 -5.19529124 0.0  1  1  H
    1.37433094 -4.6647107 0.0  2  2  N
    -0.21830245 -5.49458215 0.0  3  3  Si
    -0.17484108 -6.98516892 0.0  1  4  H
    -1.66171682 -4.58600741 0.0  2  5  N
    -1.09026419 -2.87456374 0.0  3  6  Si
    -1.53038332 -0.70765692 0.0  3  7  Si
    -3.14415959 -0.09186471 0.0  2  8  N
    -3.40268075 0.95848335 0.0  1  9  H
    -3.95073599 -0.76720972 0.0  1  10  H
    -0.17836637 0.41349951 0.0  2  11  N
    1.49520211 -0.0473996 0.0  3  12  Si
    2.45603905 1.10727302 0.0  1  13  H
    2.30451743 -1.58574382 0.0  2  14  N
    1.10725559 -2.84610319 0.0  3  15  Si
    0.10066981414677889 10.914808262571295 0.0  1  16  H
    -0.7080408658532211 10.222602382571294 0.0  2  17  N
    -2.364630705853221 10.935722482571295 0.0  3  18  Si
    -2.267765535853221 12.446447692571294 0.0  1  19  H
    -4.090787055853221 9.592674352571294 0.0  3  20  Si
    -6.445241305853221 9.584687422571294 0.0  3  21  Si
    -7.007659425853221 10.319177072571295 -1.20183078  1  22  H
    -6.745055055853221 8.105596292571294 -0.08618332  1  23  H
    -7.007771885853221 10.149519882571294 1.28814761  1  24  H
    -3.161396415853221 7.522103122571295 0.0  3  25  Si
    -4.110864775853221 6.233566992571294 0.0  4  26  O
    -1.3704515458532212 7.348367652571294 0.0  2  27  N
    -1.039460185853221 6.316010672571295 0.0  1  28  H
    -0.06199332585322115 8.542914072571294 0.0  3  29  Si
    1.5039436041467789 8.275667222571295 0.0  4  30  O
%endblock AtomicCoordinatesAndAtomicSpecies

%include ../../../../Defaults.fdf
