SystemLabel      desoxy2

NumberOfAtoms    37

NumberOfSpecies  4
%block ChemicalSpeciesLabel
    1    1  H
    2    8  O
    3   14  Si
    4   15   P  
%endblock ChemicalSpeciesLabel

###################################
# This overrides Defaults.fdf conf
###################################
MD.TypeOfRun                CG # CG, Verlet
MD.Steps                    300

AtomicCoordinatesFormat NotScaledCartesianAng
%block AtomicCoordinatesAndAtomicSpecies
    -0.423000000    -8.150000000    -2.094000000    1
     0.427000000    -7.826000000    -1.788000000    2
     1.443000000    -7.510000000    -2.756000000    3
     1.100000000    -6.745000000    -3.453000000    1
     1.674000000    -8.423000000    -3.305000000    1
     2.695000000    -7.020000000    -2.053000000    3
     3.574000000    -7.056000000    -2.696000000    1
     2.477000000    -5.630000000    -1.823000000    2
     2.308000000    -5.333000000    -0.452000000    3
     3.091000000    -4.700000000    -0.035000000    1
     1.098000000    -4.468000000    -0.370000000    1
     2.950000000    -7.607000000    -0.665000000    3
     2.586000000    -8.629000000    -0.554000000    1
     2.148000000    -6.679000000     0.247000000    3
     1.344000000    -7.241000000     0.722000000    1
     2.804000000    -6.267000000     1.014000000    1
     4.324000000    -7.545000000    -0.307000000    2
     4.728000000    -7.626000000     1.239000000    4
     6.009000000    -8.356000000     1.380000000    2
     3.592000000    -8.164000000     2.021000000    2
     4.945000000    -6.081000000     1.592000000    2
     5.582000000    -5.227000000     0.624000000    3
     4.855000000    -4.809000000    -0.072000000    1
     6.306000000    -5.829000000     0.075000000    1
     6.306000000    -4.095000000     1.327000000    3
     7.038000000    -3.607000000     0.684000000    1
     5.313000000    -3.099000000     1.557000000    2
     5.002000000    -2.958000000     2.928000000    3
     5.264000000    -1.986000000     3.346000000    1
     3.515000000    -2.969000000     3.010000000    1
     6.858000000    -4.420000000     2.715000000    3
     7.164000000    -5.460000000     2.826000000    1
     5.664000000    -4.141000000     3.627000000    3
     5.344000000    -5.069000000     4.102000000    1
     5.952000000    -3.422000000     4.394000000    1
     7.933000000    -3.562000000     3.073000000    2
     8.313000000    -3.728000000     3.939000000    1
%endblock AtomicCoordinatesAndAtomicSpecies

%include ../../defaults.fdf





