# mpirun -np 4 siesta-4.1.5 < desoxy.fdf > desoxy.out &

SystemLabel      desoxy

NumberOfAtoms    18

NumberOfSpecies  3
%block ChemicalSpeciesLabel
    1    1  H
    2    8  O
    3   14  Si
%endblock ChemicalSpeciesLabel

############################################
# This overrides Defaults.fdf configuration
############################################
MD.TypeOfRun                Verlet # CG, Verlet
MD.Steps                    1000
MD.Quench                   True
SCF.H.Tolerance             0.00002 eV
SCF.DM.Tolerance            0.00008

AtomicCoordinatesFormat NotScaledCartesianAng
%block AtomicCoordinatesAndAtomicSpecies
     4.728000000    -7.626000000     1.239000000    1
     4.945000000    -6.081000000     1.592000000    2
     5.582000000    -5.227000000     0.624000000    3
     4.855000000    -4.809000000    -0.072000000    1
     6.306000000    -5.829000000     0.075000000    1
     6.306000000    -4.095000000     1.327000000    3
     7.038000000    -3.607000000     0.684000000    1
     5.313000000    -3.099000000     1.557000000    2
     5.002000000    -2.958000000     2.928000000    3
     5.264000000    -1.986000000     3.346000000    1
     3.515000000    -2.969000000     3.010000000    1
     6.858000000    -4.420000000     2.715000000    3
     7.164000000    -5.460000000     2.826000000    1
     5.664000000    -4.141000000     3.627000000    3
     5.344000000    -5.069000000     4.102000000    1
     5.952000000    -3.422000000     4.394000000    1
     7.933000000    -3.562000000     3.073000000    2
     8.313000000    -3.728000000     3.939000000    1
%endblock AtomicCoordinatesAndAtomicSpecies

%include ../../../Defaults.fdf
