# mpirun -np 4 siesta-4.1.5 < GC.fdf > GC.out &

SystemLabel      GC

NumberOfAtoms    29

NumberOfSpecies  4
%block ChemicalSpeciesLabel
    1    1  H
    2    7  N
    3   14  Si
    4    8  O
%endblock ChemicalSpeciesLabel

############################################
# This overrides Defaults.fdf configuration
############################################
MD.TypeOfRun                Verlet # CG, Verlet
MD.Steps                    0
MaxSCFIterations            200
SCF.MustConverge            F

AtomicCoordinatesFormat NotScaledCartesianAng
%block AtomicCoordinatesAndAtomicSpecies
    -0.2515305873418672 5.51134457906336 0.0  1  1  H
    -0.9580173173418671 4.72130839906336 0.0  2  2  N
    -2.688304227341867 5.1626723090633595 0.0  3  3  Si
    -2.844083907341867 6.65266456906336 0.0  1  4  H
    -4.2116258473418675 3.6037647890633595 0.0  3  5  Si
    -5.694813477341867 3.8465951490633596 0.0  1  6  H
    -3.013234987341867 1.6904886290633598 0.0  3  7  Si
    -3.7792604473418674 0.1577718890633597 0.0  2  8  N
    -3.189013897341867 -0.7994411409366402 0.0  1  9  H
    -4.830882767341867 0.0773116590633598 0.0  1  10  H
    -1.297034927341867 1.7456629390633598 0.0  2  11  N
    -0.22201230734186717 3.07600177906336 0.0  3  12  Si
    1.3866610126581327 3.05719151906336 0.0  4  13  O
    5.6164483 -7.44953905 0.0  1  14  H
    4.58206954 -7.2320376 0.0  2  15  N
    3.29666389 -8.492636 0.0  3  16  Si
    3.80117524 -9.90371886 -0.0  1  17  H
    1.65934232 -8.01362137 0.0  2  18  N
    1.68097912 -6.20463398 -0.0  3  19  Si
    0.54543521 -4.28636135 0.0  3  20  Si
    -1.03431493 -3.94450034 0.0  4  21  O
    1.73226934 -2.87719605 0.0  2  22  N
    1.20957366 -1.92961761 -0.0  1  23  H
    3.50853448 -2.77677601 0.0  3  24  Si
    4.13684451 -1.17938608 0.0  2  25  N
    3.54296161 -0.26248101 0.0  1  26  H
    5.18364407 -1.05231197 -0.0  1  27  H
    4.63288658 -4.07521596 -0.0  2  28  N
    3.79410501 -5.58634043 0.0  3  29  Si
%endblock AtomicCoordinatesAndAtomicSpecies

#############
# Unit Cell
#############
LatticeConstant 1.0 Ang
%block LatticeVectors
    30.00000    0.000000    0.000000
    0.000000    45.00000    0.000000
    0.000000    0.000000    10.00000
%endblock LatticeVectors

%include ../../../../Defaults.fdf