# mpirun -np 4 siesta-4.1.5 < AT.fdf > AT.out &

SystemLabel      AT

NumberOfAtoms    30

NumberOfSpecies  4
%block ChemicalSpeciesLabel
    1    1  H
    2    7  N
    3   14  Si
    4    8  O
%endblock ChemicalSpeciesLabel

############################################
# This overrides Defaults.fdf configuration
############################################
MD.TypeOfRun                Verlet # CG, Verlet
MD.Steps                    600
MD.Quench                   True

AtomicCoordinatesFormat NotScaledCartesianAng
%block AtomicCoordinatesAndAtomicSpecies
    2.34225298   -5.16237579    0.00000000   1       1  H
    1.41092585   -4.66778005    0.00000000   2       2  N
   -0.16326925   -5.53736720    0.00000000   3       3  Si
   -0.08771862   -7.03963990    0.00000000   1       4  H
   -1.61493192   -4.63669912    0.00000000   2       5  N
   -1.08665785   -2.90737756    0.00000000   3       6  Si
   -1.54348961   -0.73201300    0.00000000   3       7  Si
   -3.15602113   -0.10108766    0.00000000   2       8  N
   -3.41929253    0.94700306    0.00000000   1       9  H
   -3.96222423   -0.77533954    0.00000000   1      10  H
   -0.19671030    0.39547727    0.00000000   2      11  N
    1.48094281   -0.04988905    0.00000000   3      12  Si
    2.42867586    1.11801689    0.00000000   1      13  H
    2.29859712   -1.58374094    0.00000000   2      14  N
    1.11117323   -2.85363940    0.00000000   3      15  Si
    0.62919549    7.22722152    0.00000000   1      16  H
   -0.19114816    6.55147409    0.00000000   2      17  N
   -1.83905526    7.27405675    0.00000000   3      18  Si
   -1.71060632    8.77529920    0.00000000   1      19  H
   -3.57212606    5.94523660    0.00000000   3      20  Si
   -5.91897070    5.90119456    0.00000000   3      21  Si
   -6.48160642    6.62503242   -1.20383893   1      22  H
   -6.19811382    4.41955230   -0.09134711   1      23  H
   -6.48162172    6.45339474    1.29016579   1      24  H
   -2.66057846    3.87192698    0.00000000   3      25  Si
   -3.60071106    2.58230191    0.00000000   4      26  O
   -0.88004388    3.68889646    0.00000000   2      27  N
   -0.54087840    2.66448297    0.00000000   1      28  H
    0.42741269    4.86953117    0.00000000   3      29  Si
    1.97918166    4.56029820    0.00000000   4      30  O
%endblock AtomicCoordinatesAndAtomicSpecies

#############
# Unit Cell
#############
LatticeConstant 1.0 Ang
%block LatticeVectors
    18.005604    0.000000    0.000000
    0.000000   24.777729    0.000000
    0.000000    0.000000   10.327559
%endblock LatticeVectors

%block Geometry.Constraints
    atom all 0.0 0.0 1.0 # constrain along z Cartesian vector
    clear-prev [22 -- 24]
%endblock

%include ../../../../Defaults.fdf