# mpirun -np 4 siesta-4.1.5 < AT.fdf > AT.out &

SystemLabel      AT

NumberOfAtoms    30

NumberOfSpecies  4
%block ChemicalSpeciesLabel
    1    1  H
    2    7  N
    3   14  Si
    4    8  O
%endblock ChemicalSpeciesLabel

############################################
# This overrides Defaults.fdf configuration
############################################
MD.TypeOfRun                Verlet # CG, Verlet
MD.Steps                    0
MaxSCFIterations            300

AtomicCoordinatesFormat NotScaledCartesianAng
%block AtomicCoordinatesAndAtomicSpecies
    2.28494382 -5.19529124 0.0  1  1  H
    1.37433094 -4.6647107 0.0  2  2  N
    -0.21830245 -5.49458215 0.0  3  3  Si
    -0.17484108 -6.98516892 0.0  1  4  H
    -1.66171682 -4.58600741 0.0  2  5  N
    -1.09026419 -2.87456374 0.0  3  6  Si
    -1.53038332 -0.70765692 0.0  3  7  Si
    -3.14415959 -0.09186471 0.0  2  8  N
    -3.40268075 0.95848335 0.0  1  9  H
    -3.95073599 -0.76720972 0.0  1  10  H
    -0.17836637 0.41349951 0.0  2  11  N
    1.49520211 -0.0473996 0.0  3  12  Si
    2.45603905 1.10727302 0.0  1  13  H
    2.30451743 -1.58574382 0.0  2  14  N
    1.10725559 -2.84610319 0.0  3  15  Si
    0.25540344085154854 9.804981523914135 0.0  1  16  H
    -0.5533072391484515 9.112775643914135 0.0  2  17  N
    -2.2098970791484516 9.825895743914135 0.0  3  18  Si
    -2.1130319091484515 11.336620953914135 0.0  1  19  H
    -3.9360534291484512 8.482847613914135 0.0  3  20  Si
    -6.290507679148452 8.474860683914136 0.0  3  21  Si
    -6.852925799148452 9.209350333914134 -1.20183078  1  22  H
    -6.590321429148452 6.995769553914135 -0.08618332  1  23  H
    -6.853038259148452 9.039693143914135 1.28814761  1  24  H
    -3.0066627891484514 6.412276383914135 0.0  3  25  Si
    -3.9561311491484514 5.123740253914135 0.0  4  26  O
    -1.2157179191484515 6.238540913914135 0.0  2  27  N
    -0.8847265591484514 5.206183933914135 0.0  1  28  H
    0.0927403008515485 7.433087333914134 0.0  3  29  Si
    1.6586772308515485 7.165840483914135 0.0  4  30  O
%endblock AtomicCoordinatesAndAtomicSpecies

%include ../../../../Defaults.fdf
