SystemLabel      GC

NumberOfAtoms    29

NumberOfSpecies  4
%block ChemicalSpeciesLabel
    1    8  O
    2    7  N
    3   14  Si
    4    1  H
%endblock ChemicalSpeciesLabel

# Single point calculation
MD.TypeOfRun                CG
MD.Steps                    0
SCF.MustConverge            F # In case it does not. There can be 2 very close atoms

AtomicCoordinatesFormat NotScaledCartesianAng
%block AtomicCoordinatesAndAtomicSpecies
0.854927710    3.902811360    0.000000000       1
-3.151486600   0.823854130    0.000000000       2
1.928518680    1.174000900    0.000000000       2
0.979899500    -1.830275890   0.000000000       2
-2.159258930   -2.028004800   0.000000000       2
3.785319770    -1.112700660   0.000000000       2
-1.345933810   0.976250250    0.000000000       3
-0.599439880   -1.096077170   0.000000000       3
0.453182890    2.350510230    0.000000000       3
2.133302030    -0.576510800   0.000000000       3
-3.516065660   -0.842056510   0.000000000       3
2.824527830    1.754723110    0.000000000       4
-4.877551690   -1.469214660   0.000000000       4
3.994952020    -2.143204000   0.000000000       4
4.620903610    -0.483666060   0.000000000       4
-2.279085180   -3.081514090   0.000000000       4
6.463254879    6.200664516    -0.000000000      3
8.332214369    7.460308146    -0.000000000      3
7.873281989    3.458926296    -0.000000000      3
9.940874709    5.965517516    -0.000000000      3
6.522784829    4.515712056    -0.000000000      2
4.833255679    6.830724746    -0.000000000      2
9.517170859    4.250016706    -0.000000000      2
8.612578069    8.930530666    -0.000000000      4
11.436286089   6.184370056    -0.000000000      4
4.588796689    7.849190696    -0.000000000      4
4.006514499    6.173876616    -0.000000000      4
7.932557749    1.876484266    -0.000000000      1
10.288826449   3.523049346    -0.000000000      4
%endblock AtomicCoordinatesAndAtomicSpecies

%include ../../../Defaults.fdf
