# mpirun -np 4 siesta-4.1.5 < AT.fdf > AT.out &

SystemLabel      AT

NumberOfAtoms    30

NumberOfSpecies  4
%block ChemicalSpeciesLabel
    1    1  H
    2    7  N
    3   14  Si
    4    8  O
%endblock ChemicalSpeciesLabel

############################################
# This overrides Defaults.fdf configuration
############################################
MD.TypeOfRun                Verlet # CG, Verlet
MD.Steps                    0
MaxSCFIterations            300

AtomicCoordinatesFormat NotScaledCartesianAng
%block AtomicCoordinatesAndAtomicSpecies
    2.28494382 -5.19529124 0.0  1  1  H
    1.37433094 -4.6647107 0.0  2  2  N
    -0.21830245 -5.49458215 0.0  3  3  Si
    -0.17484108 -6.98516892 0.0  1  4  H
    -1.66171682 -4.58600741 0.0  2  5  N
    -1.09026419 -2.87456374 0.0  3  6  Si
    -1.53038332 -0.70765692 0.0  3  7  Si
    -3.14415959 -0.09186471 0.0  2  8  N
    -3.40268075 0.95848335 0.0  1  9  H
    -3.95073599 -0.76720972 0.0  1  10  H
    -0.17836637 0.41349951 0.0  2  11  N
    1.49520211 -0.0473996 0.0  3  12  Si
    2.45603905 1.10727302 0.0  1  13  H
    2.30451743 -1.58574382 0.0  2  14  N
    1.10725559 -2.84610319 0.0  3  15  Si
    0.6753947133359234 6.792594661844703 0.0  1  16  H
    -0.13331596666407658 6.1003887818447025 0.0  2  17  N
    -1.7899058066640765 6.813508881844703 0.0  3  18  Si
    -1.6930406366640764 8.324234091844703 0.0  1  19  H
    -3.5160621566640766 5.470460751844702 0.0  3  20  Si
    -5.870516406664077 5.462473821844703 0.0  3  21  Si
    -6.432934526664077 6.196963471844702 -1.20183078  1  22  H
    -6.170330156664077 3.9833826918447026 -0.08618332  1  23  H
    -6.433046986664077 6.0273062818447025 1.28814761  1  24  H
    -2.586671516664077 3.399889521844703 0.0  3  25  Si
    -3.536139876664077 2.1113533918447027 0.0  4  26  O
    -0.7957266466640767 3.226154051844703 0.0  2  27  N
    -0.46473528666407654 2.193797071844703 0.0  1  28  H
    0.5127315733359233 4.420700471844702 0.0  3  29  Si
    2.078668503335923 4.153453621844703 0.0  4  30  O
%endblock AtomicCoordinatesAndAtomicSpecies

%include ../../../../Defaults.fdf
