# mpirun -np 4 siesta-4.1.5 < GC.fdf > GC.out &

SystemLabel      GC

NumberOfAtoms    29

NumberOfSpecies  4
%block ChemicalSpeciesLabel
    1    1  H
    2    7  N
    3   14  Si
    4    8  O
%endblock ChemicalSpeciesLabel

############################################
# This overrides Defaults.fdf configuration
############################################
MD.TypeOfRun                CG # CG, Verlet
MD.Steps                    0
MaxSCFIterations            600

AtomicCoordinatesFormat NotScaledCartesianAng
%block AtomicCoordinatesAndAtomicSpecies
    1.181860798549936 3.378028019304331 -0.0  1  1  H
    0.475374068549936 2.587991839304331 -0.0  2  2  N
    -1.2549128414500639 3.029355749304331 0.0  3  3  Si
    -1.4106925214500639 4.5193480093043314 0.0  1  4  H
    -2.7782344614500643 1.470448229304331 -0.0  3  5  Si
    -4.261422091450064 1.7132785893043312 -0.0  1  6  H
    -1.5798436014500639 -0.44282793069566895 -0.0  3  7  Si
    -2.345869061450064 -1.975544670695669 -0.0  2  8  N
    -1.7556225114500639 -2.932757700695669 0.0  1  9  H
    -3.397491381450064 -2.056004900695669 -0.0  1  10  H
    0.13635645854993605 -0.387653620695669 0.0  2  11  N
    1.211379078549936 0.9426852193043311 -0.0  3  12  Si
    2.8200523985499357 0.9238749593043312 -0.0  4  13  O
    5.6164483 -7.44953905 0.0  1  14  H
    4.58206954 -7.2320376 0.0  2  15  N
    3.29666389 -8.492636 0.0  3  16  Si
    3.80117524 -9.90371886 -0.0  1  17  H
    1.65934232 -8.01362137 0.0  2  18  N
    1.68097912 -6.20463398 -0.0  3  19  Si
    0.54543521 -4.28636135 0.0  3  20  Si
    -1.03431493 -3.94450034 0.0  4  21  O
    1.73226934 -2.87719605 0.0  2  22  N
    1.20957366 -1.92961761 -0.0  1  23  H
    3.50853448 -2.77677601 0.0  3  24  Si
    4.13684451 -1.17938608 0.0  2  25  N
    3.54296161 -0.26248101 0.0  1  26  H
    5.18364407 -1.05231197 -0.0  1  27  H
    4.63288658 -4.07521596 -0.0  2  28  N
    3.79410501 -5.58634043 0.0  3  29  Si
%endblock AtomicCoordinatesAndAtomicSpecies

%include ../../../../Defaults.fdf