SystemLabel      AT

NumberOfAtoms    30

NumberOfSpecies  4
%block ChemicalSpeciesLabel
    1    1  H
    2    7  N
    3   14  Si
    4    8  O
%endblock ChemicalSpeciesLabel

# Single point calculation
MD.TypeOfRun                CG
MD.Steps                    0
SCF.MustConverge            F # In case it does not. There can be 2 very close atoms

AtomicCoordinatesFormat NotScaledCartesianAng
%block AtomicCoordinatesAndAtomicSpecies
2.582377650    -5.776830440   0.000000000       1
1.654759240    -5.269361980   0.000000000       2
0.063128840    -6.101704590   0.000000000       3
0.119223240    -7.596849500   0.000000000       1
-1.376892050   -5.182603740   0.000000000       2
-0.824371900   -3.460866440   0.000000000       3
-1.170571480   -1.270002100   0.000000000       3
-2.706933680   -0.417515780   0.000000000       2
-2.754569660   0.634858620    0.000000000       1
-3.637675640   -0.909967860   0.000000000       1
0.218091790    -0.234193970   0.000000000       2
1.872004100    -0.697162300   0.000000000       3
2.828001130    0.461464770    0.000000000       1
2.648150080    -2.255024470   0.000000000       2
1.391921380    -3.454727220   0.000000000       3
1.838056642    8.349629940    0.000000000       2
0.510685122    9.559834240    0.000000000       3
1.150686392    10.921152480   0.000000000       1
-1.575060818   8.889302890    0.000000000       3
-3.604623418   10.019419080   0.000000000       3
-3.450387648   11.179649290   0.940305280       1
-4.590558138   8.997498460    0.512613700       1
-4.020838378   10.495644930   -1.366678340      1
-1.508565398   6.615326270    0.000000000       3
-2.547614128   5.422266770    0.000000000       4
0.148426182    5.981351080    0.000000000       2
0.130408812    4.918906250    0.000000000       1
1.772029252    6.578421290    0.000000000       3
2.967045422    5.563996090    0.000000000       4
2.838094012    8.695137040    0.000000000       1
%endblock AtomicCoordinatesAndAtomicSpecies

%include ../../../Defaults.fdf
