# mpirun -np 4 siesta-4.1.5 < GC.fdf > GC.out &

SystemLabel      GC

NumberOfAtoms    29

NumberOfSpecies  4
%block ChemicalSpeciesLabel
    1    1  H
    2    7  N
    3   14  Si
    4    8  O
%endblock ChemicalSpeciesLabel

############################################
# This overrides Defaults.fdf configuration
############################################
MD.TypeOfRun                CG # CG, Verlet
MD.Steps                    0
MaxSCFIterations            600

AtomicCoordinatesFormat NotScaledCartesianAng
%block AtomicCoordinatesAndAtomicSpecies
    0.6835286554483024 4.119695803555385 0.0  1  1  H
    -0.02295807455169757 3.3296596235553855 0.0  2  2  N
    -1.7532449845516975 3.771023533555385 0.0  3  3  Si
    -1.9090246645516975 5.261015793555385 0.0  1  4  H
    -3.276566604551698 2.2121160135553852 0.0  3  5  Si
    -4.759754234551698 2.4549463735553854 0.0  1  6  H
    -2.0781757445516975 0.29883985355538506 0.0  3  7  Si
    -2.844201204551698 -1.233876886444615 0.0  2  8  N
    -2.2539546545516975 -2.191089916444615 0.0  1  9  H
    -3.8958235245516977 -1.314337116444615 0.0  1  10  H
    -0.3619756845516976 0.35401416355538506 0.0  2  11  N
    0.7130469354483024 1.684353003555385 0.0  3  12  Si
    2.321720255448302 1.6655427435553851 0.0  4  13  O
    5.6164483 -7.44953905 0.0  1  14  H
    4.58206954 -7.2320376 0.0  2  15  N
    3.29666389 -8.492636 0.0  3  16  Si
    3.80117524 -9.90371886 -0.0  1  17  H
    1.65934232 -8.01362137 0.0  2  18  N
    1.68097912 -6.20463398 -0.0  3  19  Si
    0.54543521 -4.28636135 0.0  3  20  Si
    -1.03431493 -3.94450034 0.0  4  21  O
    1.73226934 -2.87719605 0.0  2  22  N
    1.20957366 -1.92961761 -0.0  1  23  H
    3.50853448 -2.77677601 0.0  3  24  Si
    4.13684451 -1.17938608 0.0  2  25  N
    3.54296161 -0.26248101 0.0  1  26  H
    5.18364407 -1.05231197 -0.0  1  27  H
    4.63288658 -4.07521596 -0.0  2  28  N
    3.79410501 -5.58634043 0.0  3  29  Si
%endblock AtomicCoordinatesAndAtomicSpecies

%include ../../../../Defaults.fdf