# mpirun -np 8 siesta-5 < AT.fdf > AT.out &

SystemLabel      AT

NumberOfAtoms    30

NumberOfSpecies  4
%block ChemicalSpeciesLabel
    1    1  H ../../../Pseudos/VW/H/H.psf
    2    7  N ../../../Pseudos/VW/N/N.psf
    3   14  Si ../../../Pseudos/VW/Si/Si.psf
    4    8  O ../../../Pseudos/VW/O/O.psf
%endblock ChemicalSpeciesLabel

############################################
# This overrides Defaults.fdf configuration
############################################
XC.Functional               VDW
XC.Authors                  DRSLL

MD.Steps                    1000

%block Geometry.Constraints
    atom all 0.0 0.0 1.0 # constrain along z Cartesian vector
    atom [6]
    clear-prev [22 -- 24]
%endblock

AtomicCoordinatesFormat NotScaledCartesianAng
%block AtomicCoordinatesAndAtomicSpecies
    2.31653473   -5.14834903    0.00000000   1       1  H
    1.40295054   -4.64047007    0.00000000   2       2  N
   -0.17305462   -5.47759156    0.00000000   3       3  Si
   -0.07825592   -6.95235237    0.00000000   1       4  H
   -1.62086051   -4.60275182    0.00000000   2       5  N
   -1.09026419   -2.87456374    0.00000000   3       6  Si
   -1.54498205   -0.71056273    0.00000000   3       7  Si
   -3.13778666   -0.06337329    0.00000000   2       8  N
   -3.45478743    0.93546037    0.00000000   1       9  H
   -3.97865771   -0.64892738    0.00000000   1      10  H
   -0.19771536    0.39780325    0.00000000   2      11  N
    1.45681394   -0.06320645    0.00000000   3      12  Si
    2.40968441    1.06684500    0.00000000   1      13  H
    2.27386672   -1.57492915    0.00000000   2      14  N
    1.09873163   -2.83375100    0.00000000   3      15  Si
    0.59758242    7.20937325    0.00000000   1      16  H
   -0.20594101    6.53823254    0.00000000   2      17  N
   -1.84498478    7.25857131    0.00000000   3      18  Si
   -1.71286651    8.74551428    0.00000000   1      19  H
   -3.56250366    5.94497859    0.00000000   3      20  Si
   -5.88846916    5.96354846    0.00000000   3      21  Si
   -6.35530093    6.75136388   -1.20183078   1      22  H
   -6.09570956    4.45036591   -0.08618332   1      23  H
   -6.44729271    6.58719586    1.28814761   1      24  H
   -2.69328938    3.87193209    0.00000000   3      25  Si
   -3.66477176    2.61940744    0.00000000   4      26  O
   -0.91685760    3.71793697    0.00000000   2      27  N
   -0.56252603    2.71404584    0.00000000   1      28  H
    0.40268867    4.87058027    0.00000000   3      29  Si
    1.93578488    4.53210341    0.00000000   4      30  O
%endblock AtomicCoordinatesAndAtomicSpecies

#############
# Unit Cell
#############
LatticeConstant 1.0 Ang
%block LatticeVectors
    16.855075   0.000000    0.000000
    0.000000    24.528070   0.000000
    0.000000    0.000000    10.315061
%endblock LatticeVectors

%include ../../../Defaults.fdf
