# mpirun -np 4 siesta-4.1.5 < AT.fdf > AT.out &

SystemLabel      AT

NumberOfAtoms    30

NumberOfSpecies  4
%block ChemicalSpeciesLabel
    1    1  H
    2    7  N
    3   14  Si
    4    8  O
%endblock ChemicalSpeciesLabel

############################################
# This overrides Defaults.fdf configuration
############################################
MD.TypeOfRun                Verlet # CG, Verlet
MD.Steps                    600
MD.Quench                   True

AtomicCoordinatesFormat NotScaledCartesianAng
%block AtomicCoordinatesAndAtomicSpecies
     2.284888550    -5.195225210     0.000000000    1
     1.374338840    -4.664340890     0.000000000    2
    -0.217996240    -5.494598730     0.000000000    3
    -0.174810370    -6.985201860     0.000000000    1
    -1.661860040    -4.586963250     0.000000000    2
    -1.091420720    -2.875112620     0.000000000    3
    -1.531189340    -0.707945210     0.000000000    3
    -3.144917760    -0.092123410     0.000000000    2
    -3.405804060     0.956729260     0.000000000    1
    -3.950931920    -0.767405890     0.000000000    1
    -0.181922790     0.414059110     0.000000000    2
     1.492884110    -0.043973340     0.000000000    3
     2.855996250     0.807463350     0.000000000    1
     2.301593800    -1.583685000     0.000000000    2
     1.106255110    -2.845110620     0.000000000    3
     0.528002190     7.238492410     0.000000000    1
    -0.268664810     6.538861790     0.000000000    2
    -1.909090340     7.273974580     0.000000000    3
    -1.756086130     8.772172020     0.000000000    1
    -3.630137580     5.943535100     0.000000000    3
    -5.960224160     5.909069060     0.000000000    3
    -6.496752120     6.643568060    -1.203083790    1
    -6.233130330     4.428703010    -0.086204780    1
    -6.496816810     6.473737830     1.289404610    1
    -2.716779080     3.874349200     0.000000000    3
    -3.600882550     2.555751740     0.000000000    4
    -0.957608010     3.669350650     0.000000000    2
    -0.715132110     2.540290720     0.000000000    1
     0.329478230     4.850533340     0.000000000    3
     2.044654420     4.630016190     0.000000000    4
%endblock AtomicCoordinatesAndAtomicSpecies

#############
# Unit Cell
#############
LatticeConstant 1.0 Ang
%block LatticeVectors
    16.855075   0.000000    0.000000
    0.000000    24.528070   0.000000
    0.000000    0.000000    10.315061
%endblock LatticeVectors

%block Geometry.Constraints
    atom all 0.0 0.0 1.0 # constrain along z Cartesian vector
    clear-prev [22 -- 24]
%endblock

%include ../../../../Defaults.fdf