# mpirun -np 4 siesta-4.1.5 < AT.fdf > AT.out &

SystemLabel      AT

NumberOfAtoms    30

NumberOfSpecies  4
%block ChemicalSpeciesLabel
    1    1  H
    2    7  N
    3   14  Si
    4    8  O
%endblock ChemicalSpeciesLabel

############################################
# This overrides Defaults.fdf configuration
############################################
MD.TypeOfRun                Verlet # CG, Verlet
MD.Steps                    0
MaxSCFIterations            300

AtomicCoordinatesFormat NotScaledCartesianAng
%block AtomicCoordinatesAndAtomicSpecies
    2.28494382 -5.19529124 0.0  1  1  H
    1.37433094 -4.6647107 0.0  2  2  N
    -0.21830245 -5.49458215 0.0  3  3  Si
    -0.17484108 -6.98516892 0.0  1  4  H
    -1.66171682 -4.58600741 0.0  2  5  N
    -1.09026419 -2.87456374 0.0  3  6  Si
    -1.53038332 -0.70765692 0.0  3  7  Si
    -3.14415959 -0.09186471 0.0  2  8  N
    -3.40268075 0.95848335 0.0  1  9  H
    -3.95073599 -0.76720972 0.0  1  10  H
    -0.17836637 0.41349951 0.0  2  11  N
    1.49520211 -0.0473996 0.0  3  12  Si
    2.45603905 1.10727302 0.0  1  13  H
    2.30451743 -1.58574382 0.0  2  14  N
    1.10725559 -2.84610319 0.0  3  15  Si
    0.6311851057059892 7.109688015746749 0.0  1  16  H
    -0.1775255742940108 6.417482135746749 0.0  2  17  N
    -1.8341154142940108 7.130602235746749 0.0  3  18  Si
    -1.7372502442940108 8.641327445746748 0.0  1  19  H
    -3.5602717642940105 5.787554105746748 0.0  3  20  Si
    -5.914726014294011 5.779567175746749 0.0  3  21  Si
    -6.4771441342940115 6.514056825746748 -1.20183078  1  22  H
    -6.2145397642940114 4.300476045746748 -0.08618332  1  23  H
    -6.477256594294011 6.344399635746749 1.28814761  1  24  H
    -2.6308811242940107 3.7169828757467482 0.0  3  25  Si
    -3.5803494842940107 2.428446745746748 0.0  4  26  O
    -0.8399362542940109 3.5432474057467482 0.0  2  27  N
    -0.5089448942940108 2.5108904257467484 0.0  1  28  H
    0.4685219657059892 4.737793825746748 0.0  3  29  Si
    2.0344588957059893 4.470546975746749 0.0  4  30  O
%endblock AtomicCoordinatesAndAtomicSpecies

%include ../../../../Defaults.fdf
