# mpirun -np 4 siesta-4.1.5 < GC.fdf > GC.out &

SystemLabel      GC

NumberOfAtoms    29

NumberOfSpecies  4
%block ChemicalSpeciesLabel
    1    1  H
    2    7  N
    3   14  Si
    4    8  O
%endblock ChemicalSpeciesLabel

############################################
# This overrides Defaults.fdf configuration
############################################
MD.TypeOfRun                CG # CG, Verlet
MD.Steps                    0
MaxSCFIterations            600

AtomicCoordinatesFormat NotScaledCartesianAng
%block AtomicCoordinatesAndAtomicSpecies
    -0.2300802735713594 5.479420074682317 0.0  1  1  H
    -0.9365670035713594 4.689383894682318 0.0  2  2  N
    -2.6668539135713596 5.130747804682318 0.0  3  3  Si
    -2.8226335935713593 6.620740064682318 0.0  1  4  H
    -4.1901755335713595 3.5718402846823176 0.0  3  5  Si
    -5.673363163571359 3.8146706446823178 0.0  1  6  H
    -2.9917846735713596 1.6585641246823175 0.0  3  7  Si
    -3.7578101335713594 0.12584738468231738 0.0  2  8  N
    -3.1675635835713596 -0.8313656453176825 0.0  1  9  H
    -4.809432453571359 0.045387154682317465 0.0  1  10  H
    -1.2755846135713593 1.7137384346823175 0.0  2  11  N
    -0.2005619935713594 3.0440772746823175 0.0  3  12  Si
    1.4081113264286405 3.0252670146823175 0.0  4  13  O
    5.6164483 -7.44953905 0.0  1  14  H
    4.58206954 -7.2320376 0.0  2  15  N
    3.29666389 -8.492636 0.0  3  16  Si
    3.80117524 -9.90371886 -0.0  1  17  H
    1.65934232 -8.01362137 0.0  2  18  N
    1.68097912 -6.20463398 -0.0  3  19  Si
    0.54543521 -4.28636135 0.0  3  20  Si
    -1.03431493 -3.94450034 0.0  4  21  O
    1.73226934 -2.87719605 0.0  2  22  N
    1.20957366 -1.92961761 -0.0  1  23  H
    3.50853448 -2.77677601 0.0  3  24  Si
    4.13684451 -1.17938608 0.0  2  25  N
    3.54296161 -0.26248101 0.0  1  26  H
    5.18364407 -1.05231197 -0.0  1  27  H
    4.63288658 -4.07521596 -0.0  2  28  N
    3.79410501 -5.58634043 0.0  3  29  Si
%endblock AtomicCoordinatesAndAtomicSpecies

%include ../../../../Defaults.fdf