SystemLabel      AT

NumberOfAtoms    30

NumberOfSpecies  4
%block ChemicalSpeciesLabel
    1    1  H
    2    7  N
    3   14  Si
    4    8  O
%endblock ChemicalSpeciesLabel

# Single point calculation
MD.TypeOfRun                CG
MD.Steps                    0
SCF.MustConverge            F # In case it does not. There can be 2 very close atoms

AtomicCoordinatesFormat NotScaledCartesianAng
%block AtomicCoordinatesAndAtomicSpecies
2.582377650    -5.776830440   0.000000000       1
1.654759240    -5.269361980   0.000000000       2
0.063128840    -6.101704590   0.000000000       3
0.119223240    -7.596849500   0.000000000       1
-1.376892050   -5.182603740   0.000000000       2
-0.824371900   -3.460866440   0.000000000       3
-1.170571480   -1.270002100   0.000000000       3
-2.706933680   -0.417515780   0.000000000       2
-2.754569660   0.634858620    0.000000000       1
-3.637675640   -0.909967860   0.000000000       1
0.218091790    -0.234193970   0.000000000       2
1.872004100    -0.697162300   0.000000000       3
2.828001130    0.461464770    0.000000000       1
2.648150080    -2.255024470   0.000000000       2
1.391921380    -3.454727220   0.000000000       3
1.905236635    4.401483503    0.000000000       2
0.577865115    5.611687803    0.000000000       3
1.217866385    6.973006043    0.000000000       1
-1.507880825   4.941156453    0.000000000       3
-3.537443425   6.071272643    0.000000000       3
-3.383207655   7.231502853    0.940305280       1
-4.523378145   5.049352023    0.512613700       1
-3.953658385   6.547498493    -1.366678340      1
-1.441385405   2.667179833    0.000000000       3
-2.480434135   1.474120333    0.000000000       4
0.215606175    2.033204643    0.000000000       2
0.197588805    0.970759813    0.000000000       1
1.839209245    2.630274853    0.000000000       3
3.034225415    1.615849653    0.000000000       4
2.905274005    4.746990603    0.000000000       1
%endblock AtomicCoordinatesAndAtomicSpecies

%include ../../../Defaults.fdf
