# mpirun -np 4 siesta-4.1.5 < GC.fdf > GC.out &

SystemLabel      GC

NumberOfAtoms    29

NumberOfSpecies  4
%block ChemicalSpeciesLabel
    1    1  H
    2    7  N
    3   14  Si
    4    8  O
%endblock ChemicalSpeciesLabel

############################################
# This overrides Defaults.fdf configuration
############################################
MD.TypeOfRun                Verlet # CG, Verlet
MD.Steps                    0
MaxSCFIterations            200
SCF.MustConverge            F

AtomicCoordinatesFormat NotScaledCartesianAng
%block AtomicCoordinatesAndAtomicSpecies
    1.1361001291728532 3.4461336286505544 -0.0  1  1  H
    0.4296133991728532 2.6560974486505544 -0.0  2  2  N
    -1.3006735108271468 3.097461358650554 0.0  3  3  Si
    -1.4564531908271467 4.587453618650555 0.0  1  4  H
    -2.823995130827147 1.5385538386505542 -0.0  3  5  Si
    -4.307182760827147 1.7813841986505543 -0.0  1  6  H
    -1.6256042708271468 -0.37472232134944566 -0.0  3  7  Si
    -2.391629730827147 -1.9074390613494456 -0.0  2  8  N
    -1.8013831808271468 -2.8646520913494458 0.0  1  9  H
    -3.4432520508271467 -1.9878992913494455 -0.0  1  10  H
    0.09059578917285319 -0.31954801134944566 0.0  2  11  N
    1.1656184091728532 1.0107908286505545 -0.0  3  12  Si
    2.774291729172853 0.9919805686505544 -0.0  4  13  O
    5.6164483 -7.44953905 0.0  1  14  H
    4.58206954 -7.2320376 0.0  2  15  N
    3.29666389 -8.492636 0.0  3  16  Si
    3.80117524 -9.90371886 -0.0  1  17  H
    1.65934232 -8.01362137 0.0  2  18  N
    1.68097912 -6.20463398 -0.0  3  19  Si
    0.54543521 -4.28636135 0.0  3  20  Si
    -1.03431493 -3.94450034 0.0  4  21  O
    1.73226934 -2.87719605 0.0  2  22  N
    1.20957366 -1.92961761 -0.0  1  23  H
    3.50853448 -2.77677601 0.0  3  24  Si
    4.13684451 -1.17938608 0.0  2  25  N
    3.54296161 -0.26248101 0.0  1  26  H
    5.18364407 -1.05231197 -0.0  1  27  H
    4.63288658 -4.07521596 -0.0  2  28  N
    3.79410501 -5.58634043 0.0  3  29  Si
%endblock AtomicCoordinatesAndAtomicSpecies

#############
# Unit Cell
#############
LatticeConstant 1.0 Ang
%block LatticeVectors
    30.00000    0.000000    0.000000
    0.000000    45.00000    0.000000
    0.000000    0.000000    10.00000
%endblock LatticeVectors

%include ../../../../Defaults.fdf