SystemLabel      GC

NumberOfAtoms    29

NumberOfSpecies  4
%block ChemicalSpeciesLabel
    1    8  O
    2    7  N
    3   14  Si
    4    1  H
%endblock ChemicalSpeciesLabel

# Single point calculation
MD.TypeOfRun                CG
MD.Steps                    0
SCF.MustConverge            F # In case it does not. There can be 2 very close atoms

AtomicCoordinatesFormat NotScaledCartesianAng
%block AtomicCoordinatesAndAtomicSpecies
0.854927710    3.902811360    0.000000000       1
-3.151486600   0.823854130    0.000000000       2
1.928518680    1.174000900    0.000000000       2
0.979899500    -1.830275890   0.000000000       2
-2.159258930   -2.028004800   0.000000000       2
3.785319770    -1.112700660   0.000000000       2
-1.345933810   0.976250250    0.000000000       3
-0.599439880   -1.096077170   0.000000000       3
0.453182890    2.350510230    0.000000000       3
2.133302030    -0.576510800   0.000000000       3
-3.516065660   -0.842056510   0.000000000       3
2.824527830    1.754723110    0.000000000       4
-4.877551690   -1.469214660   0.000000000       4
3.994952020    -2.143204000   0.000000000       4
4.620903610    -0.483666060   0.000000000       4
-2.279085180   -3.081514090   0.000000000       4
6.577668921    6.283112430    -0.000000000      3
8.446628411    7.542756060    -0.000000000      3
7.987696031    3.541374210    -0.000000000      3
10.055288751   6.047965430    -0.000000000      3
6.637198871    4.598159970    -0.000000000      2
4.947669721    6.913172660    -0.000000000      2
9.631584901    4.332464620    -0.000000000      2
8.726992111    9.012978580    -0.000000000      4
11.550700131   6.266817970    -0.000000000      4
4.703210731    7.931638610    -0.000000000      4
4.120928541    6.256324530    -0.000000000      4
8.046971791    1.958932180    -0.000000000      1
10.403240491   3.605497260    -0.000000000      4
%endblock AtomicCoordinatesAndAtomicSpecies

%include ../../../Defaults.fdf
