# mpirun -np 4 siesta-4.1.5 < GC.fdf > GC.out &

SystemLabel      GC

NumberOfAtoms    29

NumberOfSpecies  4
%block ChemicalSpeciesLabel
    1    1  H
    2    7  N
    3   14  Si
    4    8  O
%endblock ChemicalSpeciesLabel

############################################
# This overrides Defaults.fdf configuration
############################################
MD.TypeOfRun                CG # CG, Verlet
MD.Steps                    0
MaxSCFIterations            600

AtomicCoordinatesFormat NotScaledCartesianAng
%block AtomicCoordinatesAndAtomicSpecies
    1.4310268701007527 3.0071941271788045 -0.0  1  1  H
    0.7245401401007527 2.217157947178804 -0.0  2  2  N
    -1.0057467698992473 2.658521857178804 0.0  3  3  Si
    -1.1615264498992472 4.148514117178804 0.0  1  4  H
    -2.529068389899247 1.099614337178804 -0.0  3  5  Si
    -4.012256019899247 1.3424446971788042 -0.0  1  6  H
    -1.3306775298992473 -0.8136618228211958 -0.0  3  7  Si
    -2.096702989899247 -2.346378562821196 -0.0  2  8  N
    -1.5064564398992473 -3.3035915928211956 0.0  1  9  H
    -3.148325309899247 -2.426838792821196 -0.0  1  10  H
    0.38552253010075277 -0.7584875128211959 0.0  2  11  N
    1.4605451501007527 0.5718513271788042 -0.0  3  12  Si
    3.0692184701007528 0.5530410671788042 -0.0  4  13  O
    5.6164483 -7.44953905 0.0  1  14  H
    4.58206954 -7.2320376 0.0  2  15  N
    3.29666389 -8.492636 0.0  3  16  Si
    3.80117524 -9.90371886 -0.0  1  17  H
    1.65934232 -8.01362137 0.0  2  18  N
    1.68097912 -6.20463398 -0.0  3  19  Si
    0.54543521 -4.28636135 0.0  3  20  Si
    -1.03431493 -3.94450034 0.0  4  21  O
    1.73226934 -2.87719605 0.0  2  22  N
    1.20957366 -1.92961761 -0.0  1  23  H
    3.50853448 -2.77677601 0.0  3  24  Si
    4.13684451 -1.17938608 0.0  2  25  N
    3.54296161 -0.26248101 0.0  1  26  H
    5.18364407 -1.05231197 -0.0  1  27  H
    4.63288658 -4.07521596 -0.0  2  28  N
    3.79410501 -5.58634043 0.0  3  29  Si
%endblock AtomicCoordinatesAndAtomicSpecies

%include ../../../../Defaults.fdf