SystemLabel      AT

NumberOfAtoms    30

NumberOfSpecies  4
%block ChemicalSpeciesLabel
    1    1  H
    2    7  N
    3   14  Si
    4    8  O
%endblock ChemicalSpeciesLabel

# Single point calculation
MD.TypeOfRun                CG
MD.Steps                    0
SCF.MustConverge            F # In case it does not. There can be 2 very close atoms

AtomicCoordinatesFormat NotScaledCartesianAng
%block AtomicCoordinatesAndAtomicSpecies
2.582377650    -5.776830440   0.000000000       1
1.654759240    -5.269361980   0.000000000       2
0.063128840    -6.101704590   0.000000000       3
0.119223240    -7.596849500   0.000000000       1
-1.376892050   -5.182603740   0.000000000       2
-0.824371900   -3.460866440   0.000000000       3
-1.170571480   -1.270002100   0.000000000       3
-2.706933680   -0.417515780   0.000000000       2
-2.754569660   0.634858620    0.000000000       1
-3.637675640   -0.909967860   0.000000000       1
0.218091790    -0.234193970   0.000000000       2
1.872004100    -0.697162300   0.000000000       3
2.828001130    0.461464770    0.000000000       1
2.648150080    -2.255024470   0.000000000       2
1.391921380    -3.454727220   0.000000000       3
1.907635921    4.260478273    0.000000000       2
0.580264401    5.470682573    0.000000000       3
1.220265671    6.832000813    0.000000000       1
-1.505481539   4.800151223    0.000000000       3
-3.535044139   5.930267413    0.000000000       3
-3.380808369   7.090497623    0.940305280       1
-4.520978859   4.908346793    0.512613700       1
-3.951259099   6.406493263    -1.366678340      1
-1.438986119   2.526174603    0.000000000       3
-2.478034849   1.333115103    0.000000000       4
0.218005461    1.892199413    0.000000000       2
0.199988091    0.829754583    0.000000000       1
1.841608531    2.489269623    0.000000000       3
3.036624701    1.474844423    0.000000000       4
2.907673291    4.605985373    0.000000000       1
%endblock AtomicCoordinatesAndAtomicSpecies

%include ../../../Defaults.fdf
