# mpirun -np 4 siesta-4.1.5 < AT.fdf > AT.out &

SystemLabel      AT

NumberOfAtoms    30

NumberOfSpecies  4
%block ChemicalSpeciesLabel
    1    1  H
    2    7  N
    3   14  Si
    4    8  O
%endblock ChemicalSpeciesLabel

############################################
# This overrides Defaults.fdf configuration
############################################
MD.TypeOfRun                Verlet # CG, Verlet
MD.Steps                    600
MD.Quench                   True

AtomicCoordinatesFormat NotScaledCartesianAng
%block AtomicCoordinatesAndAtomicSpecies
     2.217622320    -5.112794520     0.000000000    1
     1.295011370    -4.598965830     0.000000000    2
    -0.299040470    -5.426823720     0.000000000    3
    -0.246749750    -6.930130120     0.000000000    1
    -1.724234010    -4.483682190     0.000000000    2
    -1.160061980    -2.765425660     0.000000000    3
    -1.478528900    -0.566379910     0.000000000    3
    -3.003399620     0.308308530     0.000000000    2
    -3.038262940     1.361795100     0.000000000    1
    -3.940243560    -0.172552150     0.000000000    1
    -0.079274140     0.456777890     0.000000000    2
     1.570942030    -0.024297200     0.000000000    3
     2.543690790     1.124740140     0.000000000    1
     2.324547040    -1.593589380     0.000000000    2
     1.054985970    -2.780425890     0.000000000    3
     1.842674250     6.600083990    -0.000000000    1
     0.940182070     6.044192680    -0.000000000    2
    -0.558603180     7.039945890    -0.000000000    3
    -0.087803650     8.469403900    -0.000000000    1
    -2.487102250     6.020058300    -0.000000000    3
    -4.793050500     6.343166090    -0.000000000    3
    -5.253604960     7.135348220    -1.193819620    1
    -5.253840510     4.910573490    -0.085857520    1
    -5.257404400     6.967024850     1.284797070    1
    -2.019976710     3.795677940    -0.000000000    3
    -3.063398420     2.599149730    -0.000000000    4
    -0.275885080     3.378145370    -0.000000000    2
    -0.085933950     2.331666270    -0.000000000    1
     1.223172970     4.287777730    -0.000000000    3
     2.630574290     3.577785490    -0.000000000    4
%endblock AtomicCoordinatesAndAtomicSpecies

#############
# Unit Cell
#############
LatticeConstant 1.0 Ang
%block LatticeVectors
    16.855075   0.000000    0.000000
    0.000000    24.528070   0.000000
    0.000000    0.000000    10.315061
%endblock LatticeVectors

%block Geometry.Constraints
    atom all 0.0 0.0 1.0 # constrain along z Cartesian vector
    clear-prev [22 -- 24]
%endblock

%include ../../../../Defaults.fdf
