SystemLabel      ribosa

NumberOfAtoms    18

NumberOfSpecies  3
%block ChemicalSpeciesLabel
    1    1  H
    2    8  O
    3   14  Si
%endblock ChemicalSpeciesLabel

AtomicCoordinatesFormat NotScaledCartesianAng
%block AtomicCoordinatesAndAtomicSpecies
   -0.70572441    8.81469146    1.75531598   1       1  H
   -0.00051591    8.11436777    1.66888610   2       2  O
    0.82006423    7.70850736    3.17105309   3       3  Si
   -0.09011235    6.96632882    4.12285375   1       4  H
    1.24129333    8.99574942    3.86022610   1       5  H
    2.89223334    6.71566844    2.59025153   3       6  Si
    3.81272117    6.87849363    3.77299113   1       7  H
    2.71185018    5.02966146    2.10382559   2       8  O
    2.31733451    4.55067984    0.55282812   3       9  Si
    3.28016206    3.52741423   -0.00074615   1      10  H
    0.97572212    3.88056378    0.78998402   1      11  H
    3.34557889    7.96591788    0.65176188   3      12  Si
    2.92639968    9.43376967    0.70135137   1      13  H
    2.13035451    6.52713775   -0.78148662   3      14  Si
    0.70905752    6.96616296   -1.05210820   1      15  H
    2.83798596    6.34893256   -2.10625758   1      16  H
    5.05295828    7.76180264    0.34801243   2      17  O
    5.31848455    7.93660005   -0.59691467   1      18  H
%endblock AtomicCoordinatesAndAtomicSpecies

%include ../defaults.fdf

