SystemLabel      AT

NumberOfAtoms    30

NumberOfSpecies  4
%block ChemicalSpeciesLabel
    1    1  H
    2    7  N
    3   14  Si
    4    8  O
%endblock ChemicalSpeciesLabel

# Single point calculation
MD.TypeOfRun                CG
MD.Steps                    0
SCF.MustConverge            F # In case it does not. There can be 2 very close atoms

AtomicCoordinatesFormat NotScaledCartesianAng
%block AtomicCoordinatesAndAtomicSpecies
2.582377650    -5.776830440   0.000000000       1
1.654759240    -5.269361980   0.000000000       2
0.063128840    -6.101704590   0.000000000       3
0.119223240    -7.596849500   0.000000000       1
-1.376892050   -5.182603740   0.000000000       2
-0.824371900   -3.460866440   0.000000000       3
-1.170571480   -1.270002100   0.000000000       3
-2.706933680   -0.417515780   0.000000000       2
-2.754569660   0.634858620    0.000000000       1
-3.637675640   -0.909967860   0.000000000       1
0.218091790    -0.234193970   0.000000000       2
1.872004100    -0.697162300   0.000000000       3
2.828001130    0.461464770    0.000000000       1
2.648150080    -2.255024470   0.000000000       2
1.391921380    -3.454727220   0.000000000       3
1.912434492    3.978467813    0.000000000       2
0.585062972    5.188672113    0.000000000       3
1.225064242    6.549990353    0.000000000       1
-1.500682968   4.518140763    0.000000000       3
-3.530245568   5.648256953    0.000000000       3
-3.376009798   6.808487163    0.940305280       1
-4.516180288   4.626336333    0.512613700       1
-3.946460528   6.124482803    -1.366678340      1
-1.434187548   2.244164143    0.000000000       3
-2.473236278   1.051104643    0.000000000       4
0.222804032    1.610188953    0.000000000       2
0.204786662    0.547744123    0.000000000       1
1.846407102    2.207259163    0.000000000       3
3.041423272    1.192833963    0.000000000       4
2.912471862    4.323974913    0.000000000       1
%endblock AtomicCoordinatesAndAtomicSpecies

%include ../../../Defaults.fdf
