SystemLabel      AT

NumberOfAtoms    30

NumberOfSpecies  4
%block ChemicalSpeciesLabel
    1    1  H
    2    7  N
    3   14  Si
    4    8  O
%endblock ChemicalSpeciesLabel

# Single point calculation
MD.TypeOfRun                CG
MD.Steps                    0
SCF.MustConverge            F # In case it does not. There can be 2 very close atoms

AtomicCoordinatesFormat NotScaledCartesianAng
%block AtomicCoordinatesAndAtomicSpecies
     2.582377650    -5.776830440     0.000000000    1
     1.654759240    -5.269361980     0.000000000    2
     0.063128840    -6.101704590     0.000000000    3
     0.119223240    -7.596849500     0.000000000    1
    -1.376892050    -5.182603740     0.000000000    2
    -0.824371900    -3.460866440     0.000000000    3
    -1.170571480    -1.270002100     0.000000000    3
    -2.706933680    -0.417515780     0.000000000    2
    -2.754569660     0.634858620     0.000000000    1
    -3.637675640    -0.909967860     0.000000000    1
     0.218091790    -0.234193970     0.000000000    2
     1.872004100    -0.697162300     0.000000000    3
     2.828001130     0.461464770     0.000000000    1
     2.648150080    -2.255024470     0.000000000    2
     1.391921380    -3.454727220     0.000000000    3
     1.897721920     4.843120880     0.000000000    2
     0.570350400     6.053325180     0.000000000    3
     1.210351670     7.414643420     0.000000000    1
    -1.515395540     5.382793830     0.000000000    3
    -3.544958140     6.512910020     0.000000000    3
    -3.390722370     7.673140230     0.940305280    1
    -4.530892860     5.490989400     0.512613700    1
    -3.961173100     6.989135870    -1.366678340    1
    -1.448900120     3.108817210     0.000000000    3
    -2.487948850     1.915757710     0.000000000    4
     0.208091460     2.474842020     0.000000000    2
     0.190074090     1.412397190     0.000000000    1
     1.831694530     3.071912230     0.000000000    3
     3.026710700     2.057487030     0.000000000    4
     2.897759290     5.188627980     0.000000000    1
%endblock AtomicCoordinatesAndAtomicSpecies

%include ../../../Defaults.fdf
