SystemLabel      AT

NumberOfAtoms    30

NumberOfSpecies  4
%block ChemicalSpeciesLabel
    1    1  H
    2    7  N
    3   14  Si
    4    8  O
%endblock ChemicalSpeciesLabel

# Single point calculation
MD.TypeOfRun                CG
MD.Steps                    0
SCF.MustConverge            F # In case it does not. There can be 2 very close atoms

AtomicCoordinatesFormat NotScaledCartesianAng
%block AtomicCoordinatesAndAtomicSpecies
    2.37838008   -4.86511008    0.85315270   1       1  H
    1.45076167   -4.35764162    0.85315270   2       2  N
   -0.14086873   -5.18998423    0.85315270   3       3  Si
   -0.08477433   -6.68512914    0.85315270   1       4  H
   -1.58088962   -4.27088338    0.85315270   2       5  N
   -1.02836947   -2.54914608    0.85315270   3       6  Si
   -1.37456905   -0.35828174    0.85315270   3       7  Si
   -2.91093125    0.49420458    0.85315270   2       8  N
   -2.95856723    1.54657898    0.85315270   1       9  H
   -3.84167321    0.00175250    0.85315270   1      10  H
    0.01409422    0.67752639    0.85315270   2      11  N
    1.66800653    0.21455806    0.85315270   3      12  Si
    2.62400356    1.37318513    0.85315270   1      13  H
    2.44415251   -1.34330411    0.85315270   2      14  N
    1.18792381   -2.54300686    0.85315270   3      15  Si    ###
    1.28713263    6.63086464    1.10807467   2      16  N
   -0.14066410    7.72077569    1.10807467   3      17  Si
    0.37825507    9.13269349    1.10807467   1      18  H
   -2.16003249    6.87101118    1.10807467   3      19  Si
   -4.28036811    7.81993890    1.10807467   3      20  Si
   -4.22783998    8.98919662    2.04837995   1      21  H
   -5.17348480    6.71597712    1.62068837   1      22  H
   -4.73650506    8.25807704   -0.25860367   1      23  H
   -1.89559998    4.61148318    1.10807467   3      24  Si
   -2.82671283    3.33240457    1.10807467   4      25  O
   -0.18965918    4.12433679    1.10807467   2      26  N
   -0.11500982    3.06436457    1.10807467   1      27  H
    1.37572750    4.86064130    1.10807467   3      28  Si
    2.65460925    3.95422882    1.10807467   4      29  O
    2.25325162    7.06221598    1.10807467   1      30  H
%endblock AtomicCoordinatesAndAtomicSpecies

%include ../../../Defaults.fdf
