SystemLabel      GC

NumberOfAtoms    29

NumberOfSpecies  4
%block ChemicalSpeciesLabel
    1    8  O
    2    7  N
    3   14  Si
    4    1  H
%endblock ChemicalSpeciesLabel

# Single point calculation
MD.TypeOfRun                CG
MD.Steps                    0
SCF.MustConverge            F # In case it does not. There can be 2 very close atoms

AtomicCoordinatesFormat NotScaledCartesianAng
%block AtomicCoordinatesAndAtomicSpecies
    1.04362488    3.93922861    0.00000000   1       1  O
   -3.04064129    1.07107817    0.00000000   2       2  N
    2.05460145    1.21358207    0.00000000   2       3  N
    0.99901410   -1.73264380    0.00000000   2       4  N
   -2.13235164   -1.81296822    0.00000000   2       5  N
    3.86019055   -1.11229818    0.00000000   2       6  N
   -1.23618322    1.15296446    0.00000000   3       7  Si
   -0.53292426   -0.93900627    0.00000000   3       8  Si
    0.63566047    2.37451677    0.00000000   3       9  Si
    2.24517024   -0.54996710    0.00000000   3      10  Si
   -3.44981666   -0.58366503    0.00000000   3      11  Si
    2.96371409    1.79099263    0.00000000   4      12  H
   -4.84559135   -1.12354966    0.00000000   4      13  H
    4.00702091   -2.15230856    0.00000000   4      14  H
    4.77219438   -0.50231816    0.00000000   4      15  H
   -2.26539909   -2.86460511    0.00000000   4      16  H
    4.69967314    4.73593244    0.00000000   3      17  Si
    6.60455711    5.94257138    0.00000000   3      18  Si
    6.10880297    1.96959747    0.00000000   3      19  Si
    8.18627326    4.43881463    0.00000000   3      20  Si
    4.75929581    3.01850487    0.00000000   2      21  N
    3.16053808    5.48960975    0.00000000   2      22  N
    7.76109823    2.69943469    0.00000000   2      23  N
    6.79590191    7.43472513    0.00000000   4      24  H
    9.67064124    4.65754545    0.00000000   4      25  H
    3.04919280    6.53880486    0.00000000   4      26  H
    2.22798037    4.86469557    0.00000000   4      27  H
    6.09857614    0.36148635    0.00000000   1      28  O
    8.53652411    1.97274313    0.00000000   4      29  H
%endblock AtomicCoordinatesAndAtomicSpecies

%include ../../../Defaults.fdf
