# mpirun -np 4 siesta-4.1.5 < AT.fdf > AT.out &

SystemLabel      AT

NumberOfAtoms    30

NumberOfSpecies  4
%block ChemicalSpeciesLabel
    1    1  H
    2    7  N
    3   14  Si
    4    8  O
%endblock ChemicalSpeciesLabel

############################################
# This overrides Defaults.fdf configuration
############################################
MD.TypeOfRun                Verlet # CG, Verlet
MD.Steps                    0
MaxSCFIterations            200
SCF.MustConverge            F

AtomicCoordinatesFormat NotScaledCartesianAng
%block AtomicCoordinatesAndAtomicSpecies
    2.28494382 -5.19529124 0.0  1  1  H
    1.37433094 -4.6647107 0.0  2  2  N
    -0.21830245 -5.49458215 0.0  3  3  Si
    -0.17484108 -6.98516892 0.0  1  4  H
    -1.66171682 -4.58600741 0.0  2  5  N
    -1.09026419 -2.87456374 0.0  3  6  Si
    -1.53038332 -0.70765692 0.0  3  7  Si
    -3.14415959 -0.09186471 0.0  2  8  N
    -3.40268075 0.95848335 0.0  1  9  H
    -3.95073599 -0.76720972 0.0  1  10  H
    -0.17836637 0.41349951 0.0  2  11  N
    1.49520211 -0.0473996 0.0  3  12  Si
    2.45603905 1.10727302 0.0  1  13  H
    2.30451743 -1.58574382 0.0  2  14  N
    1.10725559 -2.84610319 0.0  3  15  Si
    0.6202090544226336 7.188413729468837 0.0  1  16  H
    -0.18850162557736633 6.496207849468837 0.0  2  17  N
    -1.8450914655773663 7.209327949468837 0.0  3  18  Si
    -1.7482262955773662 8.720053159468836 0.0  1  19  H
    -3.571247815577366 5.866279819468836 0.0  3  20  Si
    -5.925702065577367 5.858292889468837 0.0  3  21  Si
    -6.488120185577367 6.592782539468836 -1.20183078  1  22  H
    -6.225515815577367 4.379201759468836 -0.08618332  1  23  H
    -6.488232645577367 6.423125349468837 1.28814761  1  24  H
    -2.6418571755773663 3.7957085894688367 0.0  3  25  Si
    -3.5913255355773663 2.5071724594688365 0.0  4  26  O
    -0.8509123055773664 3.6219731194688367 0.0  2  27  N
    -0.5199209455773663 2.589616139468837 0.0  1  28  H
    0.45754591442263365 4.816519539468836 0.0  3  29  Si
    2.0234828444226336 4.549272689468837 0.0  4  30  O
%endblock AtomicCoordinatesAndAtomicSpecies

#############
# Unit Cell
#############
LatticeConstant 1.0 Ang
%block LatticeVectors
    30.00000    0.000000    0.000000
    0.000000    45.00000    0.000000
    0.000000    0.000000    10.00000
%endblock LatticeVectors

%include ../../../../Defaults.fdf
