SystemLabel      GC

NumberOfAtoms    29

NumberOfSpecies  4
%block ChemicalSpeciesLabel
    1    8  O
    2    7  N
    3   14  Si
    4    1  H
%endblock ChemicalSpeciesLabel

# Single point calculation
MD.TypeOfRun                CG
MD.Steps                    0
SCF.MustConverge            F # In case it does not. There can be 2 very close atoms

AtomicCoordinatesFormat NotScaledCartesianAng
%block AtomicCoordinatesAndAtomicSpecies
0.854927710    3.902811360    0.000000000       1
-3.151486600   0.823854130    0.000000000       2
1.928518680    1.174000900    0.000000000       2
0.979899500    -1.830275890   0.000000000       2
-2.159258930   -2.028004800   0.000000000       2
3.785319770    -1.112700660   0.000000000       2
-1.345933810   0.976250250    0.000000000       3
-0.599439880   -1.096077170   0.000000000       3
0.453182890    2.350510230    0.000000000       3
2.133302030    -0.576510800   0.000000000       3
-3.516065660   -0.842056510   0.000000000       3
2.824527830    1.754723110    0.000000000       4
-4.877551690   -1.469214660   0.000000000       4
3.994952020    -2.143204000   0.000000000       4
4.620903610    -0.483666060   0.000000000       4
-2.279085180   -3.081514090   0.000000000       4
7.035325088    6.612904084    -0.000000000      3
8.904284578    7.872547714    -0.000000000      3
8.445352198    3.871165864    -0.000000000      3
10.512944918   6.377757084    -0.000000000      3
7.094855038    4.927951624    -0.000000000      2
5.405325888    7.242964314    -0.000000000      2
10.089241068   4.662256274    -0.000000000      2
9.184648278    9.342770234    -0.000000000      4
12.008356298   6.596609624    -0.000000000      4
5.160866898    8.261430264    -0.000000000      4
4.578584708    6.586116184    -0.000000000      4
8.504627958    2.288723834    -0.000000000      1
10.860896658   3.935288914    -0.000000000      4
%endblock AtomicCoordinatesAndAtomicSpecies

%include ../../../Defaults.fdf
