SystemLabel      AT

NumberOfAtoms    30

NumberOfSpecies  4
%block ChemicalSpeciesLabel
    1    1  H
    2    7  N
    3   14  Si
    4    8  O
%endblock ChemicalSpeciesLabel

# Single point calculation
MD.TypeOfRun                CG
MD.Steps                    0
SCF.MustConverge            F # In case it does not. There can be 2 very close atoms

AtomicCoordinatesFormat NotScaledCartesianAng
%block AtomicCoordinatesAndAtomicSpecies
2.582377650    -5.776830440   0.000000000       1
1.654759240    -5.269361980   0.000000000       2
0.063128840    -6.101704590   0.000000000       3
0.119223240    -7.596849500   0.000000000       1
-1.376892050   -5.182603740   0.000000000       2
-0.824371900   -3.460866440   0.000000000       3
-1.170571480   -1.270002100   0.000000000       3
-2.706933680   -0.417515780   0.000000000       2
-2.754569660   0.634858620    0.000000000       1
-3.637675640   -0.909967860   0.000000000       1
0.218091790    -0.234193970   0.000000000       2
1.872004100    -0.697162300   0.000000000       3
2.828001130    0.461464770    0.000000000       1
2.648150080    -2.255024470   0.000000000       2
1.391921380    -3.454727220   0.000000000       3
1.864448782    6.798572411    0.000000000       2
0.537077262    8.008776711    0.000000000       3
1.177078532    9.370094951    0.000000000       1
-1.548668678   7.338245361    0.000000000       3
-3.578231278   8.468361551    0.000000000       3
-3.423995508   9.628591761    0.940305280       1
-4.564165998   7.446440931    0.512613700       1
-3.994446238   8.944587401    -1.366678340      1
-1.482173258   5.064268741    0.000000000       3
-2.521221988   3.871209241    0.000000000       4
0.174818322    4.430293551    0.000000000       2
0.156800952    3.367848721    0.000000000       1
1.798421392    5.027363761    0.000000000       3
2.993437562    4.012938561    0.000000000       4
2.864486152    7.144079511    0.000000000       1
%endblock AtomicCoordinatesAndAtomicSpecies

%include ../../../Defaults.fdf
