# mpirun -np 8 siesta-5 < GC.fdf > GC.out

SystemLabel      GC

NumberOfAtoms    29

NumberOfSpecies  4
%block ChemicalSpeciesLabel
    1    1  H   ../../../Pseudos/VW/H/H.psf
    2    7  N   ../../../Pseudos/VW/N/N.psf
    3    6  C   ../../../Pseudos/VW/C/C.psf
    4    8  O   ../../../Pseudos/VW/O/O.psf
%endblock ChemicalSpeciesLabel

############################################
# This overrides Defaults.fdf configuration
############################################
XC.Functional               VDW
XC.Authors                  DRSLL

MD.Steps                    1000

%block Geometry.Constraints
    atom [6]
%endblock

AtomicCoordinatesFormat NotScaledCartesianAng
%block AtomicCoordinatesAndAtomicSpecies
    6.50885786   -4.92438854    1.99306368   1       1  H
    5.80119392   -4.26269794    1.65446614   2       2  N
    4.41228910   -4.62389972    1.64566041   3       3  C
    4.23260157   -5.62694863    1.99647891   1       4  H
    3.56108798   -3.63309879    1.19570387   2       5  N
    4.53000000   -2.55300000    0.90000000   3       6  C
    4.24135140   -1.23722625    0.42149528   3       7  C
    3.12891850   -0.71512705    0.15553114   4       8  O
    5.46577338   -0.43788816    0.24638518   2       9  N
    5.33913851    0.55427514   -0.12274931   1      10  H
    6.78957712   -0.89596172    0.52419879   3      11  C
    7.85657032    0.01886388    0.29421612   2      12  N
    7.67040815    0.97169625   -0.21095986   1      13  H
    8.76910666   -0.46684673    0.53347322   1      14  H
    7.08872425   -2.17612130    1.02254733   2      15  N
    5.87554508   -2.90668260    1.16984383   3      16  C
    6.78208240    4.90416825   -1.95040363   1      17  H
    5.88752324    4.40270534   -1.69466494   2      18  N
    4.52151622    4.87848206   -1.74654538   3      19  C
    4.19922442    5.87882635   -2.09835722   1      20  H
    3.50597226    4.05770580   -1.34302844   3      21  C
    2.47256346    4.41167819   -1.38773584   1      22  H
    3.76875493    2.72866696   -0.88058541   3      23  C
    2.72079036    1.87230997   -0.50110630   2      24  N
    2.98090668    0.80745066   -0.22279347   1      25  H
    1.75663959    2.29841988   -0.58363973   1      26  H
    5.08060047    2.20526210   -0.77514498   2      27  N
    6.18259307    3.03632083   -1.15899243   3      28  C
    7.36903453    2.67335139   -1.06894576   4      29  O
%endblock AtomicCoordinatesAndAtomicSpecies

#############
# Unit Cell
#############
LatticeConstant 1.0 Ang
%block LatticeVectors
    14.278344    0.000000    0.000000
    0.000000   19.152444    0.000000
    0.000000    0.000000   11.202686
%endblock LatticeVectors

%include ../../../Defaults.fdf