# mpirun -np 4 siesta-4.1.5 < AT.fdf > AT.out &

SystemLabel      AT

NumberOfAtoms    30

NumberOfSpecies  4
%block ChemicalSpeciesLabel
    1    1  H
    2    7  N
    3   14  Si
    4    8  O
%endblock ChemicalSpeciesLabel

############################################
# This overrides Defaults.fdf configuration
############################################
MD.TypeOfRun                Verlet # CG, Verlet
MD.Steps                    0
MaxSCFIterations            300

AtomicCoordinatesFormat NotScaledCartesianAng
%block AtomicCoordinatesAndAtomicSpecies
    2.28494382 -5.19529124 0.0  1  1  H
    1.37433094 -4.6647107 0.0  2  2  N
    -0.21830245 -5.49458215 0.0  3  3  Si
    -0.17484108 -6.98516892 0.0  1  4  H
    -1.66171682 -4.58600741 0.0  2  5  N
    -1.09026419 -2.87456374 0.0  3  6  Si
    -1.53038332 -0.70765692 0.0  3  7  Si
    -3.14415959 -0.09186471 0.0  2  8  N
    -3.40268075 0.95848335 0.0  1  9  H
    -3.95073599 -0.76720972 0.0  1  10  H
    -0.17836637 0.41349951 0.0  2  11  N
    1.49520211 -0.0473996 0.0  3  12  Si
    2.45603905 1.10727302 0.0  1  13  H
    2.30451743 -1.58574382 0.0  2  14  N
    1.10725559 -2.84610319 0.0  3  15  Si
    0.2775082446665157 9.646434846963112 0.0  1  16  H
    -0.5312024353334843 8.954228966963111 0.0  2  17  N
    -2.1877922753334844 9.667349066963112 0.0  3  18  Si
    -2.0909271053334844 11.178074276963113 0.0  1  19  H
    -3.913948625333484 8.324300936963112 0.0  3  20  Si
    -6.268402875333485 8.316314006963111 0.0  3  21  Si
    -6.830820995333485 9.050803656963112 -1.20183078  1  22  H
    -6.568216625333485 6.837222876963112 -0.08618332  1  23  H
    -6.830933455333485 8.881146466963113 1.28814761  1  24  H
    -2.9845579853334843 6.253729706963112 0.0  3  25  Si
    -3.9340263453334843 4.965193576963111 0.0  4  26  O
    -1.1936131153334844 6.0799942369631115 0.0  2  27  N
    -0.8626217553334843 5.047637256963112 0.0  1  28  H
    0.11484510466651565 7.2745406569631115 0.0  3  29  Si
    1.6807820346665157 7.007293806963112 0.0  4  30  O
%endblock AtomicCoordinatesAndAtomicSpecies

%include ../../../../Defaults.fdf
