SystemLabel      GC

NumberOfAtoms    29

NumberOfSpecies  4
%block ChemicalSpeciesLabel
    1    8  O
    2    7  N
    3   14  Si
    4    1  H
%endblock ChemicalSpeciesLabel

# Single point calculation
MD.TypeOfRun                CG
MD.Steps                    0
SCF.MustConverge            F # In case it does not. There can be 2 very close atoms

AtomicCoordinatesFormat NotScaledCartesianAng
%block AtomicCoordinatesAndAtomicSpecies
0.854927710    3.902811360    0.000000000       1
-3.151486600   0.823854130    0.000000000       2
1.928518680    1.174000900    0.000000000       2
0.979899500    -1.830275890   0.000000000       2
-2.159258930   -2.028004800   0.000000000       2
3.785319770    -1.112700660   0.000000000       2
-1.345933810   0.976250250    0.000000000       3
-0.599439880   -1.096077170   0.000000000       3
0.453182890    2.350510230    0.000000000       3
2.133302030    -0.576510800   0.000000000       3
-3.516065660   -0.842056510   0.000000000       3
2.824527830    1.754723110    0.000000000       4
-4.877551690   -1.469214660   0.000000000       4
3.994952020    -2.143204000   0.000000000       4
4.620903610    -0.483666060   0.000000000       4
-2.279085180   -3.081514090   0.000000000       4
4.975872335    5.128841639    -0.000000000      3
6.844831825    6.388485269    -0.000000000      3
6.385899445    2.387103419    -0.000000000      3
8.453492165    4.893694639    -0.000000000      3
5.035402285    3.443889179    -0.000000000      2
3.345873135    5.758901869    -0.000000000      2
8.029788315    3.178193829    -0.000000000      2
7.125195525    7.858707789    -0.000000000      4
9.948903545    5.112547179    -0.000000000      4
3.101414145    6.777367819    -0.000000000      4
2.519131955    5.102053739    -0.000000000      4
6.445175205    0.804661389    -0.000000000      1
8.801443905    2.451226469    -0.000000000      4
%endblock AtomicCoordinatesAndAtomicSpecies

%include ../../../Defaults.fdf
