SystemLabel      baseG

NumberOfAtoms    69

NumberOfSpecies  5
%block ChemicalSpeciesLabel
    1   14  Si
    2    1  H
    3    8  O
    4    7  N
    5   15  P
%endblock ChemicalSpeciesLabel

AtomicCoordinatesFormat NotScaledCartesianAng
%block AtomicCoordinatesAndAtomicSpecies
    -1.844339950    16.976713490     2.939692630    1
    -2.565612560    15.945503940     3.790914930    2
    -1.287038340    18.075490620     3.814357950    2
     0.228807080    15.952079980     2.212409010    1
     0.944344260    16.009500030     3.547807480    2
     0.169724020    14.205643600     1.860217460    3
    -0.193615250    13.728522920     0.280600000    1
     0.856875180    12.738458380     0.280600000    2
     1.098937680    17.073550670     0.270728160    1
     0.600108700    18.505021680     0.266275130    2
    -0.237640290    15.681728790    -1.033600000    1
    -1.628324290    16.266314330    -1.229600000    2
     0.343333190    15.320489870    -2.384000000    2
    -0.267757510     2.002190440     0.280600000    4
    -1.843339110     1.131111920     0.280600000    1
    -1.801546880    -0.344124340     0.280600000    2
    -3.288592720     2.002717980     0.280600000    4
    -2.813220180     3.666223890     0.280600000    1
    -3.492915800     5.765246430     0.280600000    1
    -4.971446070     6.369432060     0.280600000    3
    -2.045003560     6.868452490     0.280600000    4
    -2.317043280     7.919538140     0.280600000    2
    -0.291069570     6.567221460     0.280600000    1
     0.675309680     7.966055540     0.280600000    4
     0.341159330     9.037436230     0.280600000    2
     1.716947560     7.831326370     0.280600000    2
     0.481244320     5.024874300     0.280600000    4
    -0.625112220     3.743191640     0.280600000    1
    -1.816386500    12.753293400     0.280600000    4
    -3.438786990    13.499388090     0.280600000    1
    -3.258487570    14.977959700     0.280600000    2
    -5.289623850    12.513213810     0.280600000    1
    -6.429814850    12.995717790     0.280600000    2
    -4.610174010    10.403931350     0.280600000    1
    -5.740806460     9.104420890     0.280600000    4
    -5.467272760     8.056156060     0.280600000    2
    -6.775558990     9.295352570     0.280600000    2
    -2.960149420     9.878144880     0.280600000    4
    -1.625746640    10.953266550     0.280600000    1
    -0.087214300    10.499808250     0.280600000    3
    -5.219784210    18.257388890     3.984706210    2
    -1.542935610    -2.494426310    -1.242744700    3
    -0.382312450    -1.979228430    -2.453512000    1
    -1.028334200    -0.947071530    -3.370041310    2
     0.000531890    -3.184875080    -3.283188550    2
     1.706318080    -1.238312320    -1.523140990    1
     2.658591760    -1.548692060    -2.660755790    2
     1.884014810     0.513820590    -1.240466390    3
     1.448538880     1.201833970     0.280612080    1
     2.316591970     2.411567220     0.280600000    2
     2.202344220    -2.225284810     0.590117480    1
     1.629165370    -3.615017740     0.710442110    2
     1.263707780    -0.501456030     1.926476310    1
    -0.254675000    -0.603136020     2.129008060    2
     1.970251710    -0.086375060     3.192814920    2
    -2.998284610    17.641118650     1.775201170    3
    -4.290977150    18.590371320     3.811427940    3
    -4.114833960    18.850066520     2.122546540    5
    -3.429568840    20.227637530     1.863626890    3
    -5.401434720    18.675794800     1.244858130    3
     2.825656430    17.041469550    -0.088659560    3
     3.942435420    -2.152855410     0.801718880    3
     4.371496710    -2.240444810     2.494341800    5
     5.746421450    -2.927956490     2.659862920    3
     3.172857440    -2.753154820     3.367330560    3
     4.545451980    -0.600183320     2.836764890    3
     5.318029430    -0.258010780     2.306165160    2
    -2.401560410    -2.841007620    -1.598028220    2
     3.012581980    17.398812890    -0.996330490    2
%endblock AtomicCoordinatesAndAtomicSpecies

%include ../defaults.fdf


