SystemLabel      GC

NumberOfAtoms    29

NumberOfSpecies  4
%block ChemicalSpeciesLabel
    1    8  O
    2    7  N
    3   14  Si
    4    1  H
%endblock ChemicalSpeciesLabel

# Single point calculation
MD.TypeOfRun                CG
MD.Steps                    0
SCF.MustConverge            F # In case it does not. There can be 2 very close atoms

AtomicCoordinatesFormat NotScaledCartesianAng
%block AtomicCoordinatesAndAtomicSpecies
0.854927710    3.902811360    0.000000000       1
-3.151486600   0.823854130    0.000000000       2
1.928518680    1.174000900    0.000000000       2
0.979899500    -1.830275890   0.000000000       2
-2.159258930   -2.028004800   0.000000000       2
3.785319770    -1.112700660   0.000000000       2
-1.345933810   0.976250250    0.000000000       3
-0.599439880   -1.096077170   0.000000000       3
0.453182890    2.350510230    0.000000000       3
2.133302030    -0.576510800   0.000000000       3
-3.516065660   -0.842056510   0.000000000       3
2.824527830    1.754723110    0.000000000       4
-4.877551690   -1.469214660   0.000000000       4
3.994952020    -2.143204000   0.000000000       4
4.620903610    -0.483666060   0.000000000       4
-2.279085180   -3.081514090   0.000000000       4
6.806497005    6.448008257    -0.000000000      3
8.675456495    7.707651887    -0.000000000      3
8.216524115    3.706270037    -0.000000000      3
10.284116835   6.212861257    -0.000000000      3
6.866026955    4.763055797    -0.000000000      2
5.176497805    7.078068487    -0.000000000      2
9.860412985    4.497360447    -0.000000000      2
8.955820195    9.177874407    -0.000000000      4
11.779528215   6.431713797    -0.000000000      4
4.932038815    8.096534437    -0.000000000      4
4.349756625    6.421220357    -0.000000000      4
8.275799875    2.123828007    -0.000000000      1
10.632068575   3.770393087    -0.000000000      4
%endblock AtomicCoordinatesAndAtomicSpecies

%include ../../../Defaults.fdf
