# mpirun -np 4 siesta-4.1.5 < GC.fdf > GC.out &

SystemLabel      GC

NumberOfAtoms    29

NumberOfSpecies  4
%block ChemicalSpeciesLabel
    1    1  H
    2    7  N
    3   14  Si
    4    8  O
%endblock ChemicalSpeciesLabel

############################################
# This overrides Defaults.fdf configuration
############################################
MD.TypeOfRun                CG # CG, Verlet
MD.Steps                    0
MaxSCFIterations            600

AtomicCoordinatesFormat NotScaledCartesianAng
%block AtomicCoordinatesAndAtomicSpecies
    -1.3928552741418376 7.209978237934777 0.0  1  1  H
    -2.0993420041418376 6.419942057934777 0.0  2  2  N
    -3.8296289141418374 6.8613059679347765 0.0  3  3  Si
    -3.9854085941418376 8.351298227934777 0.0  1  4  H
    -5.352950534141838 5.3023984479347765 0.0  3  5  Si
    -6.836138164141838 5.545228807934777 0.0  1  6  H
    -4.154559674141837 3.3891222879347764 0.0  3  7  Si
    -4.920585134141838 1.8564055479347765 0.0  2  8  N
    -4.330338584141837 0.8991925179347766 0.0  1  9  H
    -5.972207454141838 1.7759453179347766 0.0  1  10  H
    -2.4383596141418376 3.4442965979347764 0.0  2  11  N
    -1.3633369941418376 4.774635437934776 0.0  3  12  Si
    0.24533632585816223 4.755825177934777 0.0  4  13  O
    5.6164483 -7.44953905 0.0  1  14  H
    4.58206954 -7.2320376 0.0  2  15  N
    3.29666389 -8.492636 0.0  3  16  Si
    3.80117524 -9.90371886 -0.0  1  17  H
    1.65934232 -8.01362137 0.0  2  18  N
    1.68097912 -6.20463398 -0.0  3  19  Si
    0.54543521 -4.28636135 0.0  3  20  Si
    -1.03431493 -3.94450034 0.0  4  21  O
    1.73226934 -2.87719605 0.0  2  22  N
    1.20957366 -1.92961761 -0.0  1  23  H
    3.50853448 -2.77677601 0.0  3  24  Si
    4.13684451 -1.17938608 0.0  2  25  N
    3.54296161 -0.26248101 0.0  1  26  H
    5.18364407 -1.05231197 -0.0  1  27  H
    4.63288658 -4.07521596 -0.0  2  28  N
    3.79410501 -5.58634043 0.0  3  29  Si
%endblock AtomicCoordinatesAndAtomicSpecies

%include ../../../../Defaults.fdf