# Created by GDIS version 0.90.0
#

SystemLabel      GC

NumberOfAtoms    29

NumberOfSpecies  4
%block ChemicalSpeciesLabel
    1    1  H
    2    7  N
    3   14  Si
    4    8  O
%endblock ChemicalSpeciesLabel

AtomicCoordinatesFormat NotScaledCartesianAng
%block AtomicCoordinatesAndAtomicSpecies
    3.98684047  -12.27005906    0.00000000   1       1  H
    3.00244836  -11.88029973    0.00000000   2       2  N
    1.52382672  -12.91780311    0.00000000   3       3  Si
    1.73484581  -14.40060600    0.00000000   1       4  H
   -0.02006390  -12.19063720    0.00000000   2       5  N
    0.30800967  -10.41739651    0.00000000   3       6  Si
   -0.50359224   -8.35597165    0.00000000   3       7  Si
   -1.99344690   -7.75429661    0.00000000   4       8  O
    0.85278313   -7.12949531    0.00000000   2       9  N
    0.43491280   -6.13476731    0.00000000   1      10  H
    2.61846198   -7.27255347    0.00000000   3      11  Si
    3.45792699   -5.76904913    0.00000000   2      12  N
    3.03048577   -4.77128420    0.00000000   1      13  H
    4.50890532   -5.79515462    0.00000000   1      14  H
    3.52922130   -8.73064868    0.00000000   2      15  N
    2.48798282  -10.11777443    0.00000000   3      16  Si
    1.12686841   -0.59504520    0.00000000   1      17  H
    0.27609707   -1.22508741    0.00000000   2      18  N
   -1.34750014   -0.49232225    0.00000000   3      19  Si
   -1.22699537    1.01289662    0.00000000   1      20  H
   -3.07540971   -1.83790103    0.00000000   3      21  Si
   -4.50605321   -1.36381863    0.00000000   1      22  H
   -2.18313348   -3.93175571    0.00000000   3      23  Si
   -3.14051534   -5.35811807    0.00000000   2      24  N
   -2.68659583   -6.38933021    0.00000000   1      25  H
   -4.19222836   -5.30002149    0.00000000   1      26  H
   -0.47882602   -4.15058218    0.00000000   2      27  N
    0.74907261   -2.96060422    0.00000000   3      28  Si
    2.33915141   -3.15457734    0.00000000   4      29  O
%endblock AtomicCoordinatesAndAtomicSpecies

%include ../defaults.fdf

