SystemLabel      GC

NumberOfAtoms    29

NumberOfSpecies  4
%block ChemicalSpeciesLabel
    1    8  O
    2    7  N
    3   14  Si
    4    1  H
%endblock ChemicalSpeciesLabel

# Single point calculation
MD.TypeOfRun                CG
MD.Steps                    0
SCF.MustConverge            F # In case it does not. There can be 2 very close atoms

AtomicCoordinatesFormat NotScaledCartesianAng
%block AtomicCoordinatesAndAtomicSpecies
0.854927710    3.902811360    0.000000000       1
-3.151486600   0.823854130    0.000000000       2
1.928518680    1.174000900    0.000000000       2
0.979899500    -1.830275890   0.000000000       2
-2.159258930   -2.028004800   0.000000000       2
3.785319770    -1.112700660   0.000000000       2
-1.345933810   0.976250250    0.000000000       3
-0.599439880   -1.096077170   0.000000000       3
0.453182890    2.350510230    0.000000000       3
2.133302030    -0.576510800   0.000000000       3
-3.516065660   -0.842056510   0.000000000       3
2.824527830    1.754723110    0.000000000       4
-4.877551690   -1.469214660   0.000000000       4
3.994952020    -2.143204000   0.000000000       4
4.620903610    -0.483666060   0.000000000       4
-2.279085180   -3.081514090   0.000000000       4
5.204700419    5.293737467    -0.000000000      3
7.073659909    6.553381097    -0.000000000      3
6.614727529    2.551999247    -0.000000000      3
8.682320249    5.058590467    -0.000000000      3
5.264230369    3.608785007    -0.000000000      2
3.574701219    5.923797697    -0.000000000      2
8.258616399    3.343089657    -0.000000000      2
7.354023609    8.023603617    -0.000000000      4
10.177731629   5.277443007    -0.000000000      4
3.330242229    6.942263647    -0.000000000      4
2.747960039    5.266949567    -0.000000000      4
6.674003289    0.969557217    -0.000000000      1
9.030271989    2.616122297    -0.000000000      4
%endblock AtomicCoordinatesAndAtomicSpecies

%include ../../../Defaults.fdf
