# Created by GDIS version 0.90.0
#

SystemLabel      T

NumberOfAtoms    15

NumberOfSpecies  4
%block ChemicalSpeciesLabel
    1    1  H
    2    7  N
    3   14  Si
    4    8  O
%endblock ChemicalSpeciesLabel

AtomicCoordinatesFormat NotScaledCartesianAng
%block AtomicCoordinatesAndAtomicSpecies
    1.87089408    5.30564777   -0.00000000   1       1  H
    1.00211320    4.70046092   -0.00000000   2       2  N
   -0.60885961    5.49493210    0.00000000   3       3  Si
   -0.34128350    6.98259093   -0.00000000   1       4  H
   -2.39535987    4.46421740    0.00000000   3       5  Si
   -4.36206650    5.39375948   -0.00000000   3       6  Si
   -4.67863281    4.95146439   -1.45380470   1       7  H
   -5.52898321    5.03976478    0.85500083   1       8  H
   -4.16869061    6.89646479   -0.00036493   1       9  H
   -1.86812411    2.30990070    0.00000000   3      10  Si
   -2.72232598    0.97506889    0.00000000   4      11  O
   -0.07580925    2.01505055    0.00000000   2      12  N
    0.08679744    0.97136245    0.00000000   1      13  H
    1.40951887    2.95344600    0.00000000   3      14  Si
    2.89088089    2.38845159   -0.00000000   4      15  O
%endblock AtomicCoordinatesAndAtomicSpecies

%include ../defaults.fdf



