# mpirun -np 4 siesta-4.1.5 < AT.fdf > AT.out &

SystemLabel      AT

NumberOfAtoms    30

NumberOfSpecies  4
%block ChemicalSpeciesLabel
    1    1  H
    2    7  N
    3   14  Si
    4    8  O
%endblock ChemicalSpeciesLabel

############################################
# This overrides Defaults.fdf configuration
############################################
MD.TypeOfRun                Verlet # CG, Verlet
MD.Steps                    0
MaxSCFIterations            300

AtomicCoordinatesFormat NotScaledCartesianAng
%block AtomicCoordinatesAndAtomicSpecies
    2.28494382 -5.19529124 0.0  1  1  H
    1.37433094 -4.6647107 0.0  2  2  N
    -0.21830245 -5.49458215 0.0  3  3  Si
    -0.17484108 -6.98516892 0.0  1  4  H
    -1.66171682 -4.58600741 0.0  2  5  N
    -1.09026419 -2.87456374 0.0  3  6  Si
    -1.53038332 -0.70765692 0.0  3  7  Si
    -3.14415959 -0.09186471 0.0  2  8  N
    -3.40268075 0.95848335 0.0  1  9  H
    -3.95073599 -0.76720972 0.0  1  10  H
    -0.17836637 0.41349951 0.0  2  11  N
    1.49520211 -0.0473996 0.0  3  12  Si
    2.45603905 1.10727302 0.0  1  13  H
    2.30451743 -1.58574382 0.0  2  14  N
    1.10725559 -2.84610319 0.0  3  15  Si
    0.6974995171508905 6.63404798489368 0.0  1  16  H
    -0.11121116284910951 5.94184210489368 0.0  2  17  N
    -1.7678010028491096 6.65496220489368 0.0  3  18  Si
    -1.6709358328491095 8.16568741489368 0.0  1  19  H
    -3.4939573528491095 5.3119140748936795 0.0  3  20  Si
    -5.84841160284911 5.30392714489368 0.0  3  21  Si
    -6.41082972284911 6.0384167948936796 -1.20183078  1  22  H
    -6.14822535284911 3.8248360148936795 -0.08618332  1  23  H
    -6.4109421828491095 5.86875960489368 1.28814761  1  24  H
    -2.5645667128491096 3.24134284489368 0.0  3  25  Si
    -3.5140350728491097 1.9528067148936799 0.0  4  26  O
    -0.7736218428491095 3.0676073748936803 0.0  2  27  N
    -0.44263048284910944 2.03525039489368 0.0  1  28  H
    0.5348363771508905 4.262153794893679 0.0  3  29  Si
    2.1007733071508903 3.99490694489368 0.0  4  30  O
%endblock AtomicCoordinatesAndAtomicSpecies

%include ../../../../Defaults.fdf
