# mpirun -np 4 siesta-4.1.5 < AT.fdf > AT.out &

SystemLabel      AT

NumberOfAtoms    30

NumberOfSpecies  4
%block ChemicalSpeciesLabel
    1    1  H
    2    7  N
    3   14  Si
    4    8  O
%endblock ChemicalSpeciesLabel

############################################
# This overrides Defaults.fdf configuration
############################################
MD.TypeOfRun                Verlet # CG, Verlet
MD.Steps                    0
MaxSCFIterations            600

AtomicCoordinatesFormat NotScaledCartesianAng
%block AtomicCoordinatesAndAtomicSpecies
    2.28494382   -5.19529124    0.00000000   1       1  H
    1.37433094   -4.66471070    0.00000000   2       2  N
   -0.21830245   -5.49458215    0.00000000   3       3  Si
   -0.17484108   -6.98516892    0.00000000   1       4  H
   -1.66171682   -4.58600741    0.00000000   2       5  N
   -1.09026419   -2.87456374    0.00000000   3       6  Si
   -1.53038332   -0.70765692    0.00000000   3       7  Si
   -3.14415959   -0.09186471    0.00000000   2       8  N
   -3.40268075    0.95848335    0.00000000   1       9  H
   -3.95073599   -0.76720972    0.00000000   1      10  H
   -0.17836637    0.41349951    0.00000000   2      11  N
    1.49520211   -0.04739960    0.00000000   3      12  Si
    2.45603905    1.10727302    0.00000000   1      13  H
    2.30451743   -1.58574382    0.00000000   2      14  N
    1.10725559   -2.84610319    0.00000000   3      15  Si
    0.61321457    7.23858166    0.00000000   1      16  H
   -0.19549611    6.54637578    0.00000000   2      17  N
   -1.85208595    7.25949588    0.00000000   3      18  Si
   -1.75522078    8.77022109    0.00000000   1      19  H
   -3.57824230    5.91644775    0.00000000   3      20  Si
   -5.93269655    5.90846082    0.00000000   3      21  Si
   -6.49511467    6.64295047   -1.20183078   1      22  H
   -6.23251030    4.42936969   -0.08618332   1      23  H
   -6.49522713    6.47329328    1.28814761   1      24  H
   -2.64885166    3.84587652    0.00000000   3      25  Si
   -3.59832002    2.55734039    0.00000000   4      26  O
   -0.85790679    3.67214105    0.00000000   2      27  N
   -0.52691543    2.63978407    0.00000000   1      28  H
    0.45055143    4.86668747    0.00000000   3      29  Si
    2.01648836    4.59944062    0.00000000   4      30  O
%endblock AtomicCoordinatesAndAtomicSpecies

%include ../../../../Defaults.fdf