# mpirun -np 4 siesta-4.1.5 < AT.fdf > AT.out &

SystemLabel      AT

NumberOfAtoms    30

NumberOfSpecies  4
%block ChemicalSpeciesLabel
    1    1  H
    2    7  N
    3   14  Si
    4    8  O
%endblock ChemicalSpeciesLabel

############################################
# This overrides Defaults.fdf configuration
############################################
MD.TypeOfRun                Verlet # CG, Verlet
MD.Steps                    0
MaxSCFIterations            200
SCF.MustConverge            F

AtomicCoordinatesFormat NotScaledCartesianAng
%block AtomicCoordinatesAndAtomicSpecies
    2.28494382 -5.19529124 0.0  1  1  H
    1.37433094 -4.6647107 0.0  2  2  N
    -0.21830245 -5.49458215 0.0  3  3  Si
    -0.17484108 -6.98516892 0.0  1  4  H
    -1.66171682 -4.58600741 0.0  2  5  N
    -1.09026419 -2.87456374 0.0  3  6  Si
    -1.53038332 -0.70765692 0.0  3  7  Si
    -3.14415959 -0.09186471 0.0  2  8  N
    -3.40268075 0.95848335 0.0  1  9  H
    -3.95073599 -0.76720972 0.0  1  10  H
    -0.17836637 0.41349951 0.0  2  11  N
    1.49520211 -0.0473996 0.0  3  12  Si
    2.45603905 1.10727302 0.0  1  13  H
    2.30451743 -1.58574382 0.0  2  14  N
    1.10725559 -2.84610319 0.0  3  15  Si
    0.032939138020154246 11.400606450033663 0.0  1  16  H
    -0.7757715419798458 10.708400570033664 0.0  2  17  N
    -2.4323613819798457 11.421520670033665 0.0  3  18  Si
    -2.3354962119798457 12.932245880033664 0.0  1  19  H
    -4.158517731979845 10.078472540033664 0.0  3  20  Si
    -6.512971981979846 10.070485610033664 0.0  3  21  Si
    -7.075390101979846 10.804975260033665 -1.20183078  1  22  H
    -6.812785731979846 8.591394480033664 -0.08618332  1  23  H
    -7.075502561979846 10.635318070033664 1.28814761  1  24  H
    -3.229127091979846 8.007901310033663 0.0  3  25  Si
    -4.178595451979846 6.719365180033664 0.0  4  26  O
    -1.438182221979846 7.8341658400336645 0.0  2  27  N
    -1.1071908619798458 6.801808860033664 0.0  1  28  H
    -0.1297240019798458 9.028712260033664 0.0  3  29  Si
    1.436212928020154 8.761465410033665 0.0  4  30  O
%endblock AtomicCoordinatesAndAtomicSpecies

#############
# Unit Cell
#############
LatticeConstant 1.0 Ang
%block LatticeVectors
    30.00000    0.000000    0.000000
    0.000000    45.00000    0.000000
    0.000000    0.000000    10.00000
%endblock LatticeVectors

%include ../../../../Defaults.fdf
