# mpirun -np 4 siesta-4.1.5 < AT.fdf > AT.out &

SystemLabel      AT

NumberOfAtoms    30

NumberOfSpecies  4
%block ChemicalSpeciesLabel
    1    1  H
    2    7  N
    3   14  Si
    4    8  O
%endblock ChemicalSpeciesLabel

############################################
# This overrides Defaults.fdf configuration
############################################
MD.TypeOfRun                Verlet # CG, Verlet
MD.Steps                    0
MaxSCFIterations            300

AtomicCoordinatesFormat NotScaledCartesianAng
%block AtomicCoordinatesAndAtomicSpecies
    2.28494382 -5.19529124 0.0  1  1  H
    1.37433094 -4.6647107 0.0  2  2  N
    -0.21830245 -5.49458215 0.0  3  3  Si
    -0.17484108 -6.98516892 0.0  1  4  H
    -1.66171682 -4.58600741 0.0  2  5  N
    -1.09026419 -2.87456374 0.0  3  6  Si
    -1.53038332 -0.70765692 0.0  3  7  Si
    -3.14415959 -0.09186471 0.0  2  8  N
    -3.40268075 0.95848335 0.0  1  9  H
    -3.95073599 -0.76720972 0.0  1  10  H
    -0.17836637 0.41349951 0.0  2  11  N
    1.49520211 -0.0473996 0.0  3  12  Si
    2.45603905 1.10727302 0.0  1  13  H
    2.30451743 -1.58574382 0.0  2  14  N
    1.10725559 -2.84610319 0.0  3  15  Si
    0.034355402701877535 11.390448293424363 0.0  1  16  H
    -0.7743552772981225 10.698242413424364 0.0  2  17  N
    -2.4309451172981227 11.411362513424363 0.0  3  18  Si
    -2.3340799472981226 12.922087723424362 0.0  1  19  H
    -4.157101467298123 10.068314383424362 0.0  3  20  Si
    -6.511555717298123 10.060327453424364 0.0  3  21  Si
    -7.073973837298123 10.794817103424363 -1.20183078  1  22  H
    -6.811369467298123 8.581236323424363 -0.08618332  1  23  H
    -7.074086297298122 10.625159913424362 1.28814761  1  24  H
    -3.2277108272981225 7.997743153424363 0.0  3  25  Si
    -4.1771791872981225 6.709207023424362 0.0  4  26  O
    -1.4367659572981224 7.824007683424362 0.0  2  27  N
    -1.1057745972981223 6.791650703424363 0.0  1  28  H
    -0.1283077372981225 9.018554103424362 0.0  3  29  Si
    1.4376291927018774 8.751307253424363 0.0  4  30  O
%endblock AtomicCoordinatesAndAtomicSpecies

%include ../../../../Defaults.fdf
