SystemLabel      5G_Chain

NumberOfAtoms    321

NumberOfSpecies  5
%block ChemicalSpeciesLabel
    1   14  Si
    2    1  H
    3    8  O
    4    7  N
    5   15  P
%endblock ChemicalSpeciesLabel

############################################
# This overrides Defaults.fdf configuration
############################################
MD.TypeOfRun                Verlet # CG, Verlet
MD.Steps                    1000
MD.Quench                   True
SCF.H.Tolerance             0.00005 eV
SCF.DM.Tolerance            0.00005
MD.MaxForceTol              0.005 eV/Ang

SCF.MustConverge            F
MD.LengthTimeStep           1.5 fs

%block SCF.Mixers
    init
    mid
    final
%endblock

%block SCF.Mixer.init
    method pulay
    weight 0.07
    history 10
    restart 12
    restart.save 4
    next mid
    iterations 30
%endblock

%block SCF.Mixer.mid
    method pulay
    weight 0.13
    history 6
    restart 12
    restart.save 3
    next final
    iterations 24
%endblock

%block SCF.Mixer.final
    method pulay
    weight 0.2
    history 6
    restart 20
    iterations 15
%endblock

AtomicCoordinatesFormat NotScaledCartesianAng
%block AtomicCoordinatesAndAtomicSpecies
   -1.73942834   16.88674431    2.94566626   1       1  Si
   -2.40789317   15.82124326    3.77867316   2       2  H
   -1.33841715   18.07105692    3.78029921   2       3  H
    0.32224504   16.02207293    2.17678286   1       4  Si
    1.16111371   16.09223117    3.42735687   2       5  H
    0.17761298   14.29492143    1.84131959   3       6  O
   -0.17681719   13.74243991    0.22962787   1       7  Si
    0.80321195   12.67782159   -0.17518178   2       8  H
    1.05064265   17.10770577    0.20310375   1       9  Si
    0.53387626   18.52111927    0.17553892   2      10  H
   -0.22327074   15.66778768   -1.18028846   1      11  Si
   -1.60624296   16.27068255   -1.31800246   2      12  H
    0.35652560   15.37186492   -2.54756226   2      13  H
   -0.31779287    2.08657969    0.20412147   4      14  N
   -1.89775316    1.33787546    0.73021856   1      15  Si
   -2.05213740   -0.09204048    0.35126612   2      16  H
   -3.15627839    2.25595740    1.41107906   4      17  N
   -2.58913334    3.95374539    1.57144531   1      18  Si
   -3.48875371    5.85887815    0.52462926   1      19  Si
   -4.99179948    6.38215085    0.26418461   3      20  O
   -2.05880682    6.94587595    0.27541295   4      21  N
   -2.32085071    8.00338398    0.26245116   2      22  H
   -0.30673188    6.62673202    0.20247840   1      23  Si
    0.68019667    8.00050118    0.36093875   4      24  N
    0.35600444    9.07953837    0.35085290   2      25  H
    1.71696224    7.82712290    0.26680721   2      26  H
    0.48687968    5.10338158   -0.03705791   4      27  N
   -0.59847676    3.85438702    0.38676010   1      28  Si
   -1.80867780   12.76287550    0.28457383   4      29  N
   -3.41297180   13.52462364    0.26941733   1      30  Si
   -3.21172930   15.01458932    0.26329592   2      31  H
   -5.31190779   12.46852655    0.92399329   1      32  Si
   -6.42230689   12.94533541   -0.00036532   2      33  H
   -4.61095756   10.36168319    0.29649704   1      34  Si
   -5.74287811    9.05653161    0.25408579   4      35  N
   -5.45970116    8.00572969    0.17718380   2      36  H
   -6.77936822    9.25854999    0.26299602   2      37  H
   -2.95137497    9.87501479    0.31927280   4      38  N
   -1.62772238   10.96453703    0.31770623   1      39  Si
   -0.09053338   10.51735873    0.26414332   3      40  O
   -1.60498194   -2.51645002   -1.23153967   3      41  O
   -0.38518837   -1.97962280   -2.37344761   1      42  Si
   -0.98122898   -0.89822600   -3.25119059   2      43  H
    0.00063167   -3.14722486   -3.25168377   2      44  H
    1.72479698   -1.22286526   -1.48436371   1      45  Si
    2.67613483   -1.43946910   -2.63660095   2      46  H
    1.87039521    0.53830105   -1.22708472   3      47  O
    1.39816993    1.26834297    0.26912212   1      48  Si
    2.23003788    2.51640751    0.43954493   2      49  H
    2.30352932   -2.16344883    0.62052309   1      50  Si
    1.87318730   -3.59614485    0.79101391   2      51  H
    1.22000079   -0.50222786    1.88039230   1      52  Si
   -0.27023923   -0.71892186    2.02030117   2      53  H
    1.78436146   -0.26799907    3.25061954   2      54  H
   -2.94539663   17.44294470    1.76315605   3      55  O
   -4.08219170   18.56562318    2.49643245   5      56  P
   -3.48048617   20.03833938    2.55130940   3      57  O
   -5.44351682   18.51850160    1.75400322   3      58  O
    2.76381743   17.08053295   -0.08817168   3      59  O
    4.01314363   -1.88869136    0.87738987   3      60  O
    4.52274333   -1.95953240    2.50352730   5      61  P
    5.88602498   -2.69540380    2.63539300   3      62  O
    3.30292593   -2.51456914    3.33680082   3      63  O
    4.72824141   -0.26974079    2.72475319   3      64  O
   -2.38198010   -2.96088851   -1.66742539   2      65  H
    3.03375250   17.44176376   -0.96916123   2      66  H
   -8.01547039   14.60085616    7.01429081   1      67  Si
   -7.76074672   13.30260217    7.73264899   2      68  H
   -8.47570923   15.64348696    7.99532753   2      69  H
   -5.88063966   15.29685746    6.23892398   1      70  Si
   -5.26188014   15.91188083    7.46899126   2      71  H
   -4.90859632   13.84639822    5.88310295   3      72  O
   -4.88945522   13.23273287    4.25554988   1      73  Si
   -3.47752876   13.12534391    3.77743519   2      74  H
   -6.08219091   16.66784558    4.29588983   1      75  Si
   -7.31583718   17.53055878    4.30515186   2      76  H
   -6.19679539   14.73580802    2.92937287   1      77  Si
   -7.58626170   14.20345361    2.72293316   2      78  H
   -5.61929570   15.10302666    1.58090654   2      79  H
    2.67343685    4.15269350    3.99527790   4      80  N
    2.06322118    2.47737033    4.13757394   1      81  Si
    3.12253689    1.43688652    4.04087099   2      82  H
    0.37602464    2.17888722    4.32672628   4      83  N
   -0.41526620    3.74013257    4.65889974   1      84  Si
   -2.27573799    4.88327752    3.79160514   1      85  Si
   -3.74838850    4.49616062    4.30493143   3      86  O
   -1.79438689    6.67178102    3.90241812   4      87  N
   -2.67773488    7.28195569    4.04150104   2      88  H
   -0.30325511    7.61125298    3.99754555   1      89  Si
   -0.47537111    9.28607476    4.26837975   4      90  N
   -1.42615515    9.88767831    4.30379230   2      91  H
    0.41445131    9.85673908    4.31109169   2      92  H
    1.30185715    6.94719110    3.91587013   4      93  N
    1.25617762    5.25009327    4.09924779   1      94  Si
   -5.46253081   11.42762116    4.34047148   4      95  N
   -7.18792317   10.96917886    4.30765821   1      96  Si
   -8.02802471   12.22627586    4.30484468   2      97  H
   -7.92509747    8.92686065    4.93185235   1      98  Si
   -9.18695147    8.63028205    4.12890113   2      99  H
   -6.05095360    7.74858463    4.28122144   1     100  Si
   -6.05520818    6.01834305    4.32935112   4     101  N
   -5.15543819    5.39319474    4.30041838   2     102  H
   -6.95848666    5.48414460    4.21699019   2     103  H
   -4.48197861    8.47879945    4.29328277   4     104  N
   -4.15833591   10.16131132    4.32573376   1     105  Si
   -2.67746687   10.78656665    4.30486460   3     106  O
    5.32296463    0.93774699    1.60146335   1     107  Si
    4.10585435    1.34822996    0.78941375   2     108  H
    6.41171204    0.36403862    0.70984541   2     109  H
    6.31852638    2.94542170    2.55316319   1     110  Si
    7.22667471    3.32682033    1.40567344   2     111  H
    5.26428557    4.40111163    2.72567322   3     112  O
    4.46717165    4.65098372    4.22997335   1     113  Si
    4.28215703    6.11511641    4.47994647   2     114  H
    7.29694000    2.61491716    4.72615321   1     115  Si
    7.93834396    1.25948341    4.91988707   2     116  H
    5.35377951    3.21900887    5.90855099   1     117  Si
    4.28179591    2.15659785    6.06244483   2     118  H
    5.53055428    3.95572361    7.20462910   2     119  H
   -9.28013173   14.29468523    5.80454694   3     120  O
  -10.90527318   14.46196714    6.45972398   5     121  P
  -11.32643127   15.99480376    6.32946472   3     122  O
  -11.86423940   13.48438639    5.70934630   3     123  O
   -4.63305449   17.53431134    3.95021348   3     124  O
    8.38536561    3.95636849    5.00867682   3     125  O
    8.81589484    4.26676912    6.65356042   5     126  P
   10.34372560    4.58460339    6.76442262   3     127  O
    8.20783625    3.05884867    7.46648978   3     128  O
    7.85151350    5.66299265    7.02653328   3     129  O
  -11.64171155    9.05596066   11.06736610   1     130  Si
  -10.70432891    8.18027228   11.86143214   2     131  H
  -12.66846448    9.70948965   11.94984982   2     132  H
  -10.27014368   10.91277950   10.33281964   1     133  Si
  -10.16994741   11.59777700   11.68414820   2     134  H
   -8.56838021   10.42888323   10.01187007   3     135  O
   -8.17778530   10.03929934    8.36025149   1     136  Si
   -6.96000488   10.78960767    7.90686424   2     137  H
  -11.24601172   12.00690043    8.39292998   1     138  Si
  -12.75505987   11.86619403    8.43415991   2     139  H
  -10.13877416   10.42358276    7.02801750   1     140  Si
  -10.97309958    9.16826524    6.94027565   2     141  H
   -9.81331329   10.87845518    5.62313807   2     142  H
    3.31689531    7.93282877    8.35179188   4     143  N
    3.79131533    6.26017258    8.91539021   1     144  Si
    5.17375317    5.84349748    8.52268294   2     145  H
    2.65019484    5.19177653    9.58872807   4     146  N
    1.06537316    6.03532663    9.73493615   1     147  Si
   -0.91362127    5.45072479    8.59917472   1     148  Si
   -1.69365034    4.04856668    8.43378758   3     149  O
   -1.77376224    7.01490013    8.28923309   4     150  N
   -2.85757197    6.92211087    8.34402737   2     151  H
   -1.17523080    8.68860573    8.21083858   1     152  Si
   -2.35356297    9.89964371    8.39654852   4     153  N
   -3.47681600    9.79735078    8.43352001   2     154  H
   -1.96449005   10.88013782    8.34568821   2     155  H
    0.46904579    9.18819432    7.96576402   4     156  N
    1.52286266    7.96824278    8.52805483   1     157  Si
   -7.49694562    8.26664772    8.45634289   4     158  N
   -8.54231873    6.83432918    8.45997917   1     159  Si
   -9.99027818    7.28143325    8.43388258   2     160  H
   -7.78933622    4.80343550    9.14117377   1     161  Si
   -8.47470504    3.77566311    8.25766161   2     162  H
   -5.57767074    5.11313951    8.49339712   1     163  Si
   -4.47121832    3.78190962    8.45552800   4     164  N
   -3.39068373    3.86693165    8.34650676   2     165  H
   -4.81833044    2.78669378    8.43375180   2     166  H
   -4.83846941    6.67808835    8.49586646   4     167  N
   -5.69039452    8.16684263    8.47851798   1     168  Si
   -4.99520125    9.61684767    8.43415032   3     169  O
    7.51237153    6.97445176    5.90943952   1     170  Si
    6.42165996    6.47252160    5.00511050   2     171  H
    8.74330235    7.28237740    5.09516564   2     172  H
    6.94416623    9.18914508    6.72473671   1     173  Si
    7.40514280    9.98038356    5.53277637   2     174  H
    5.26405794    9.79494186    6.94342658   3     175  O
    4.44455784    9.46593930    8.43979715   1     176  Si
    3.39017565   10.51701086    8.69499952   2     177  H
    8.00092233    9.58750470    8.80066460   1     178  Si
    9.27772064    8.80953039    8.96189921   2     179  H
    6.10931396    8.96881454   10.07832466   1     180  Si
    5.97695632    7.46018777   10.19223209   2     181  H
    5.88706050    9.61795430   11.42009189   2     182  H
  -12.48865752    8.00195815    9.92819277   3     183  O
  -13.87356028    7.07771250   10.23258644   5     184  P
  -15.15864577    7.99673659   10.02131778   3     185  O
  -13.91500539    5.75449445    9.40225515   3     186  O
  -10.79191955   13.66860575    8.07838440   3     187  O
    8.20553103   11.32591188    8.96549838   3     188  O
    8.25961644   11.75885573   10.65419542   5     189  P
    9.27348865   12.94344519   10.80644289   3     190  O
    8.64762706   10.43484732   11.50348360   3     191  O
    6.51721430   12.31400663   10.89366714   3     192  O
  -10.63282096    2.53120109   15.21752612   1     193  Si
   -9.27768503    2.51827376   15.90084805   2     194  H
  -11.68774691    2.24686610   16.25316504   2     195  H
  -10.97795683    4.76624665   14.43800988   1     196  Si
  -11.33078249    5.48470396   15.72535342   2     197  H
   -9.36868351    5.39296261   14.05423507   3     198  O
   -8.74036500    5.35560709   12.44367154   1     199  Si
   -8.38525607    6.74443429   12.03452232   2     200  H
  -12.37589574    4.88862517   12.44234927   1     201  Si
  -13.38241338    3.77350633   12.47572071   2     202  H
  -10.45547865    4.35813937   11.11924081   1     203  Si
  -10.25863950    2.87381664   10.98145511   2     204  H
  -10.70383503    4.94571990    9.75063731   2     205  H
    1.52257612   11.21200712   12.23736800   4     206  N
    3.06196844   10.31255023   12.38946963   1     207  Si
    4.28462486   11.14855131   12.29888569   2     208  H
    3.07923110    8.59770891   12.53156785   4     209  N
    1.40531322    8.07409066   12.86116023   1     210  Si
    0.02866902    6.41177969   11.92291308   1     211  Si
    0.08775236    4.94302100   12.56270179   3     212  O
   -1.67815923    7.17575749   11.90377795   4     213  N
   -2.40930577    6.38402655   12.03671533   2     214  H
   -2.35561739    8.79721700   12.08685466   1     215  Si
   -4.02675640    8.97289828   12.40791028   4     216  N
   -4.81601399    8.18157888   12.47492619   2     217  H
   -4.37115254    9.97554279   12.47466439   2     218  H
   -1.44159796   10.27839665   12.02893543   4     219  N
    0.21007115    9.98547116   12.32915773   1     220  Si
   -7.07281845    4.47305641   12.55586752   4     221  N
   -6.96594020    2.69520166   12.50742799   1     222  Si
   -8.38380034    2.15739503   12.56289149   2     223  H
   -5.06046131    1.58378956   13.03869264   1     224  Si
   -4.99571709    0.36112587   12.12460916   2     225  H
   -3.57158605    3.26178911   12.44634806   1     226  Si
   -1.86919694    2.97058590   12.53836054   4     227  N
   -1.08688909    3.74530844   12.52150984   2     228  H
   -1.51578391    1.97789383   12.47521979   2     229  H
   -4.00596648    4.93420191   12.43077738   4     230  N
   -5.60398673    5.54026709   12.52992579   1     231  Si
   -5.97549131    7.10116174   12.56289230   3     232  O
    5.32148182   13.16464068    9.92983668   1     233  Si
    4.64015901   12.13679212    9.04821931   2     234  H
    5.97716516   14.20453232    9.04939865   2     235  H
    3.38953305   14.50769251   10.81054380   1     236  Si
    3.21223229   15.37277547    9.57643523   2     237  H
    1.70027192   13.84369066   10.98369475   3     238  O
    1.30766000   13.06682677   12.46927446   1     239  Si
   -0.17979047   13.12547755   12.65133710   2     240  H
    3.80585433   15.49510439   12.95023335   1     241  Si
    5.26261611   15.82236576   13.17816030   2     242  H
    2.86618624   13.70828019   14.14939662   1     243  Si
    3.74832736   12.49376679   14.32023243   2     244  H
    2.22891073   14.02434160   15.46373443   2     245  H
  -10.61638593    1.25534547   13.97613127   3     246  O
  -10.98954215   -0.34497718   14.64542804   5     247  P
  -12.57052107   -0.53764697   14.50039859   3     248  O
  -10.16928496   -1.43717407   13.88118760   3     249  O
  -13.02786471    6.38567094   11.94416786   3     250  O
    2.67595517   16.81169825   13.18348382   3     251  O
    2.48754842   17.30072021   14.89674003   5     252  P
    2.40896058   18.87198417   15.02205863   3     253  O
    3.56367991   16.45444822   15.72172844   3     254  O
    0.89406405   16.63173194   15.28383072   3     255  O
   -5.81827809   -1.98894213   19.27594831   1     256  Si
   -4.72783098   -1.25869015   20.03096995   2     257  H
   -6.60179851   -2.87712484   20.20732384   2     258  H
   -7.42369732   -0.33008553   18.53605473   1     259  Si
   -8.11887224   -0.09024063   19.85608883   2     260  H
   -6.69093688    1.25464964   18.18334645   3     261  O
   -6.15179948    1.52427622   16.55374245   1     262  Si
   -6.77969506    2.78906891   16.07577916   2     263  H
   -8.62285827   -1.11268080   16.60523960   1     264  Si
   -8.74245443   -2.60856238   16.69188031   2     265  H
   -6.83744767   -0.34873359   15.24259853   1     266  Si
   -5.70986376   -1.34939680   15.11034285   2     267  H
   -7.31519231    0.08943888   13.88026298   2     268  H
   -2.15864080   12.61356026   16.55398240   4     269  N
   -0.37583523   12.88806179   16.53374780   1     270  Si
    0.08875265   14.29436073   16.34053705   2     271  H
    0.71120647   11.55781613   16.66084957   4     272  N
   -0.27768746   10.16749143   17.19360406   1     273  Si
   -0.41534761    7.94605750   16.61637867   1     274  Si
    0.80203823    6.92144516   16.69127479   3     275  O
   -2.13146854    7.38373906   16.59075393   4     276  N
   -2.22937529    6.29290389   16.60480312   2     277  H
   -3.66654015    8.28335451   16.58289856   1     278  Si
   -5.05556662    7.31092550   16.65034917   4     279  N
   -5.08605896    6.20169674   16.69162670   2     280  H
   -5.97855297    7.81961016   16.60428672   2     281  H
   -3.87477981    9.99962734   16.54244528   4     282  N
   -2.40672895   10.84577892   16.72651287   1     283  Si
   -4.29992088    1.88751094   16.67498808   4     284  N
   -3.04363836    0.62141126   16.72249761   1     285  Si
   -3.74637829   -0.71913282   16.69174110   2     286  H
   -0.93914759    0.99440969   17.49515560   1     287  Si
   -0.08961466    0.17978980   16.51690538   2     288  H
   -0.88815423    3.20087287   16.76343186   1     289  Si
    0.61433415    4.04908120   16.67927739   4     290  N
    0.71384310    5.12334063   16.60430542   2     291  H
    1.51749778    3.50685702   16.69214282   2     292  H
   -2.26989820    4.24627881   16.72532874   4     293  N
   -3.87529984    3.65008181   16.70275999   1     294  Si
   -5.17287690    4.58595128   16.69214556   3     295  O
   -3.38464327   -5.22361358   20.39367652   2     296  H
   -0.42144148   16.50833935   14.12348060   1     297  Si
   -0.08944684   15.37283395   13.17765225   2     298  H
   -0.53564682   17.80045739   13.35315143   2     299  H
   -2.70975775   16.30814196   14.94917525   1     300  Si
   -3.47891275   16.90145662   13.79244193   2     301  H
   -3.56482020   14.74577657   15.20010681   3     302  O
   -3.47773050   13.95569870   16.72598085   1     303  Si
   -4.72791699   13.12575852   16.86891967   2     304  H
   -2.87715058   17.41395831   17.04224876   1     305  Si
   -1.87307490   18.51954361   17.21975402   2     306  H
   -2.62764275   15.47260911   18.34861595   1     307  Si
   -1.15867341   15.10164951   18.44971614   2     308  H
   -3.30099706   15.37158970   19.68083449   2     309  H
   -4.99464937   -3.05666007   18.10184585   3     310  O
   -3.92620144   -4.40623557   20.19799488   3     311  O
   -4.31941703   -4.56388046   18.47998228   5     312  P
   -5.43829587   -5.66160344   18.18765342   3     313  O
   -3.03729509   -4.85323796   17.57515171   3     314  O
  -10.17384719   -0.35701853   16.33360360   3     315  O
   -4.54924706   17.89089121   17.22333730   3     316  O
   -4.97974965   18.12511294   18.89409118   5     317  P
   -6.06424212   19.23760307   19.06317620   3     318  O
   -3.66026451   18.24829131   19.76363863   3     319  O
   -5.70901549   16.63157219   19.23869327   3     320  O
   -6.60375784   16.63159542   18.80026169   2     321  H
%endblock AtomicCoordinatesAndAtomicSpecies

#############
# Unit Cell
#############
LatticeConstant 1.0 Ang
%block LatticeVectors
    34.255884    0.000000    0.000000
    0.000000   34.521044    0.000000
    0.000000    0.000000   33.736061
%endblock LatticeVectors

%include ../../../Defaults.fdf
