SystemLabel      GC

NumberOfAtoms    29

NumberOfSpecies  4
%block ChemicalSpeciesLabel
    1    8  O
    2    7  N
    3   14  Si
    4    1  H
%endblock ChemicalSpeciesLabel

# Single point calculation
MD.TypeOfRun                CG
MD.Steps                    0
SCF.MustConverge            F # In case it does not. There can be 2 very close atoms

AtomicCoordinatesFormat NotScaledCartesianAng
%block AtomicCoordinatesAndAtomicSpecies
0.958671510    3.803529300    0.000000000       1
-3.038688210   0.998073330    0.000000000       2
2.066567750    1.099065770    0.000000000       2
1.029569860    -1.834680850   0.000000000       2
-2.108567660   -1.881798240   0.000000000       2
3.912411070    -1.180894430   0.000000000       2
-1.235636790   1.044983000    0.000000000       3
-0.501909240   -1.031832280   0.000000000       3
0.629463280    2.232755840    0.000000000       3
2.280054370    -0.658293540   0.000000000       3
-3.424812990   -0.662324160   0.000000000       3
2.965974160    1.682263990    0.000000000       4
-4.796229390   -1.238728480   0.000000000       4
4.096559410    -2.214148760   0.000000000       4
4.792108680    -0.529147250   0.000000000       4
-2.266861300   -2.922393730   0.000000000       4
4.551518080    4.854155130    0.000000000       3
6.476995830    6.045784460    0.000000000       3
6.012189440    2.119600760    0.000000000       3
8.083369360    4.566647350    0.000000000       3
4.653802620    3.144800440    0.000000000       2
2.972139990    5.524384620    0.000000000       2
7.665259340    2.834764440    0.000000000       2
6.785486650    7.510445820    0.000000000       4
9.575042270    4.766626810    0.000000000       4
2.787513550    6.559258350    0.000000000       4
2.080048200    4.853095890    0.000000000       4
6.002058840    0.521372240    0.000000000       1
8.441857720    2.112934240    0.000000000       4
%endblock AtomicCoordinatesAndAtomicSpecies

%include ../../../Defaults.fdf
