# mpirun -np 4 siesta-4.1.5 < GC.fdf > GC.out &

SystemLabel      GC

NumberOfAtoms    29

NumberOfSpecies  4
%block ChemicalSpeciesLabel
    1    1  H
    2    7  N
    3   14  Si
    4    8  O
%endblock ChemicalSpeciesLabel

############################################
# This overrides Defaults.fdf configuration
############################################
MD.TypeOfRun                Verlet # CG, Verlet
MD.Steps                    0
MaxSCFIterations            200
SCF.MustConverge            F

AtomicCoordinatesFormat NotScaledCartesianAng
%block AtomicCoordinatesAndAtomicSpecies
    -0.16990525107629506 5.389861581980254 0.0  1  1  H
    -0.876391981076295 4.599825401980254 0.0  2  2  N
    -2.606678891076295 5.041189311980253 0.0  3  3  Si
    -2.762458571076295 6.5311815719802535 0.0  1  4  H
    -4.130000511076295 3.4822817919802533 0.0  3  5  Si
    -5.613188141076296 3.7251121519802535 0.0  1  6  H
    -2.931609651076295 1.5690056319802534 0.0  3  7  Si
    -3.697635111076295 0.03628889198025331 0.0  2  8  N
    -3.107388561076295 -0.9209241380197466 0.0  1  9  H
    -4.749257431076295 -0.0441713380197466 0.0  1  10  H
    -1.215409591076295 1.6241799419802534 0.0  2  11  N
    -0.14038697107629505 2.954518781980253 0.0  3  12  Si
    1.4682863489237048 2.9357085219802537 0.0  4  13  O
    5.6164483 -7.44953905 0.0  1  14  H
    4.58206954 -7.2320376 0.0  2  15  N
    3.29666389 -8.492636 0.0  3  16  Si
    3.80117524 -9.90371886 -0.0  1  17  H
    1.65934232 -8.01362137 0.0  2  18  N
    1.68097912 -6.20463398 -0.0  3  19  Si
    0.54543521 -4.28636135 0.0  3  20  Si
    -1.03431493 -3.94450034 0.0  4  21  O
    1.73226934 -2.87719605 0.0  2  22  N
    1.20957366 -1.92961761 -0.0  1  23  H
    3.50853448 -2.77677601 0.0  3  24  Si
    4.13684451 -1.17938608 0.0  2  25  N
    3.54296161 -0.26248101 0.0  1  26  H
    5.18364407 -1.05231197 -0.0  1  27  H
    4.63288658 -4.07521596 -0.0  2  28  N
    3.79410501 -5.58634043 0.0  3  29  Si
%endblock AtomicCoordinatesAndAtomicSpecies

#############
# Unit Cell
#############
LatticeConstant 1.0 Ang
%block LatticeVectors
    30.00000    0.000000    0.000000
    0.000000    45.00000    0.000000
    0.000000    0.000000    10.00000
%endblock LatticeVectors

%include ../../../../Defaults.fdf