# mpirun -np 4 siesta-4.1.5 < AT.fdf > AT.out &

SystemLabel      AT

NumberOfAtoms    30

NumberOfSpecies  4
%block ChemicalSpeciesLabel
    1    1  H
    2    7  N
    3   14  Si
    4    8  O
%endblock ChemicalSpeciesLabel

############################################
# This overrides Defaults.fdf configuration
############################################
MD.TypeOfRun                Verlet # CG, Verlet
MD.Steps                    0
MaxSCFIterations            300

AtomicCoordinatesFormat NotScaledCartesianAng
%block AtomicCoordinatesAndAtomicSpecies
    2.28494382 -5.19529124 0.0  1  1  H
    1.37433094 -4.6647107 0.0  2  2  N
    -0.21830245 -5.49458215 0.0  3  3  Si
    -0.17484108 -6.98516892 0.0  1  4  H
    -1.66171682 -4.58600741 0.0  2  5  N
    -1.09026419 -2.87456374 0.0  3  6  Si
    -1.53038332 -0.70765692 0.0  3  7  Si
    -3.14415959 -0.09186471 0.0  2  8  N
    -3.40268075 0.95848335 0.0  1  9  H
    -3.95073599 -0.76720972 0.0  1  10  H
    -0.17836637 0.41349951 0.0  2  11  N
    1.49520211 -0.0473996 0.0  3  12  Si
    2.45603905 1.10727302 0.0  1  13  H
    2.30451743 -1.58574382 0.0  2  14  N
    1.10725559 -2.84610319 0.0  3  15  Si
    0.808023536225726 5.841314600138567 0.0  1  16  H
    -0.0006871437742740072 5.149108720138566 0.0  2  17  N
    -1.657276983774274 5.862228820138567 0.0  3  18  Si
    -1.560411813774274 7.372954030138565 0.0  1  19  H
    -3.3834333337742737 4.519180690138565 0.0  3  20  Si
    -5.737887583774274 4.511193760138566 0.0  3  21  Si
    -6.300305703774274 5.245683410138566 -1.20183078  1  22  H
    -6.037701333774274 3.032102630138566 -0.08618332  1  23  H
    -6.300418163774274 5.076026220138566 1.28814761  1  24  H
    -2.454042693774274 2.448609460138566 0.0  3  25  Si
    -3.403511053774274 1.160073330138566 0.0  4  26  O
    -0.6630978237742741 2.274873990138566 0.0  2  27  N
    -0.332106463774274 1.2425170101385663 0.0  1  28  H
    0.6453603962257259 3.4694204101385657 0.0  3  29  Si
    2.211297326225726 3.2021735601385664 0.0  4  30  O
%endblock AtomicCoordinatesAndAtomicSpecies

%include ../../../../Defaults.fdf
