# mpirun -np 4 siesta-4.1.5 < AT.fdf > AT.out &

SystemLabel      AT

NumberOfAtoms    30

NumberOfSpecies  4
%block ChemicalSpeciesLabel
    1    1  H
    2    7  N
    3   14  Si
    4    8  O
%endblock ChemicalSpeciesLabel

############################################
# This overrides Defaults.fdf configuration
############################################
MD.TypeOfRun                Verlet # CG, Verlet
MD.Steps                    0
MaxSCFIterations            200
SCF.MustConverge            F

AtomicCoordinatesFormat NotScaledCartesianAng
%block AtomicCoordinatesAndAtomicSpecies
    2.28494382 -5.19529124 0.0  1  1  H
    1.37433094 -4.6647107 0.0  2  2  N
    -0.21830245 -5.49458215 0.0  3  3  Si
    -0.17484108 -6.98516892 0.0  1  4  H
    -1.66171682 -4.58600741 0.0  2  5  N
    -1.09026419 -2.87456374 0.0  3  6  Si
    -1.53038332 -0.70765692 0.0  3  7  Si
    -3.14415959 -0.09186471 0.0  2  8  N
    -3.40268075 0.95848335 0.0  1  9  H
    -3.95073599 -0.76720972 0.0  1  10  H
    -0.17836637 0.41349951 0.0  2  11  N
    1.49520211 -0.0473996 0.0  3  12  Si
    2.45603905 1.10727302 0.0  1  13  H
    2.30451743 -1.58574382 0.0  2  14  N
    1.10725559 -2.84610319 0.0  3  15  Si
    0.7942149555789239 5.940356627079259 0.0  1  16  H
    -0.014495724421076134 5.248150747079258 0.0  2  17  N
    -1.671085564421076 5.961270847079259 0.0  3  18  Si
    -1.574220394421076 7.471996057079258 0.0  1  19  H
    -3.397241914421076 4.618222717079258 0.0  3  20  Si
    -5.751696164421077 4.610235787079258 0.0  3  21  Si
    -6.314114284421077 5.3447254370792585 -1.20183078  1  22  H
    -6.051509914421077 3.131144657079258 -0.08618332  1  23  H
    -6.3142267444210765 5.175068247079258 1.28814761  1  24  H
    -2.467851274421076 2.5476514870792584 0.0  3  25  Si
    -3.417319634421076 1.2591153570792581 0.0  4  26  O
    -0.6769064044210762 2.3739160170792584 0.0  2  27  N
    -0.3459150444210761 1.3415590370792585 0.0  1  28  H
    0.6315518155789238 3.568462437079258 0.0  3  29  Si
    2.197488745578924 3.3012155870792586 0.0  4  30  O
%endblock AtomicCoordinatesAndAtomicSpecies

#############
# Unit Cell
#############
LatticeConstant 1.0 Ang
%block LatticeVectors
    30.00000    0.000000    0.000000
    0.000000    45.00000    0.000000
    0.000000    0.000000    10.00000
%endblock LatticeVectors

%include ../../../../Defaults.fdf
