# mpirun -np 4 siesta-4.1.5 < AT.fdf > AT.out &

SystemLabel      AT

NumberOfAtoms    30

NumberOfSpecies  4
%block ChemicalSpeciesLabel
    1    1  H
    2    7  N
    3   14  Si
    4    8  O
%endblock ChemicalSpeciesLabel

############################################
# This overrides Defaults.fdf configuration
############################################
MD.TypeOfRun                Verlet # CG, Verlet
MD.Steps                    0
MaxSCFIterations            200
SCF.MustConverge            F

AtomicCoordinatesFormat NotScaledCartesianAng
%block AtomicCoordinatesAndAtomicSpecies
    2.28494382 -5.19529124 0.0  1  1  H
    1.37433094 -4.6647107 0.0  2  2  N
    -0.21830245 -5.49458215 0.0  3  3  Si
    -0.17484108 -6.98516892 0.0  1  4  H
    -1.66171682 -4.58600741 0.0  2  5  N
    -1.09026419 -2.87456374 0.0  3  6  Si
    -1.53038332 -0.70765692 0.0  3  7  Si
    -3.14415959 -0.09186471 0.0  2  8  N
    -3.40268075 0.95848335 0.0  1  9  H
    -3.95073599 -0.76720972 0.0  1  10  H
    -0.17836637 0.41349951 0.0  2  11  N
    1.49520211 -0.0473996 0.0  3  12  Si
    2.45603905 1.10727302 0.0  1  13  H
    2.30451743 -1.58574382 0.0  2  14  N
    1.10725559 -2.84610319 0.0  3  15  Si
    0.2939479897545895 9.528520796449296 0.0  1  16  H
    -0.5147626902454105 8.836314916449297 0.0  2  17  N
    -2.1713525302454104 9.549435016449298 0.0  3  18  Si
    -2.0744873602454104 11.060160226449296 0.0  1  19  H
    -3.8975088802454105 8.206386886449296 0.0  3  20  Si
    -6.251963130245411 8.198399956449297 0.0  3  21  Si
    -6.814381250245411 8.932889606449297 -1.20183078  1  22  H
    -6.551776880245411 6.719308826449296 -0.08618332  1  23  H
    -6.814493710245411 8.763232416449297 1.28814761  1  24  H
    -2.9681182402454107 6.135815656449297 0.0  3  25  Si
    -3.9175866002454107 4.847279526449297 0.0  4  26  O
    -1.1771733702454106 5.962080186449297 0.0  2  27  N
    -0.8461820102454105 4.929723206449297 0.0  1  28  H
    0.13128484975458948 7.156626606449296 0.0  3  29  Si
    1.6972217797545894 6.889379756449297 0.0  4  30  O
%endblock AtomicCoordinatesAndAtomicSpecies

#############
# Unit Cell
#############
LatticeConstant 1.0 Ang
%block LatticeVectors
    30.00000    0.000000    0.000000
    0.000000    45.00000    0.000000
    0.000000    0.000000    10.00000
%endblock LatticeVectors

%include ../../../../Defaults.fdf
