# mpirun -np 4 siesta-4.1.5 < AT.fdf > AT.out &

SystemLabel      AT

NumberOfAtoms    30

NumberOfSpecies  4
%block ChemicalSpeciesLabel
    1    1  H
    2    7  N
    3   14  Si
    4    8  O
%endblock ChemicalSpeciesLabel

############################################
# This overrides Defaults.fdf configuration
############################################
MD.TypeOfRun                Verlet # CG, Verlet
MD.Steps                    0
MaxSCFIterations            300

AtomicCoordinatesFormat NotScaledCartesianAng
%block AtomicCoordinatesAndAtomicSpecies
    2.28494382 -5.19529124 0.0  1  1  H
    1.37433094 -4.6647107 0.0  2  2  N
    -0.21830245 -5.49458215 0.0  3  3  Si
    -0.17484108 -6.98516892 0.0  1  4  H
    -1.66171682 -4.58600741 0.0  2  5  N
    -1.09026419 -2.87456374 0.0  3  6  Si
    -1.53038332 -0.70765692 0.0  3  7  Si
    -3.14415959 -0.09186471 0.0  2  8  N
    -3.40268075 0.95848335 0.0  1  9  H
    -3.95073599 -0.76720972 0.0  1  10  H
    -0.17836637 0.41349951 0.0  2  11  N
    1.49520211 -0.0473996 0.0  3  12  Si
    2.45603905 1.10727302 0.0  1  13  H
    2.30451743 -1.58574382 0.0  2  14  N
    1.10725559 -2.84610319 0.0  3  15  Si
    0.2996130484814827 9.48788817001209 0.0  1  16  H
    -0.5090976315185174 8.79568229001209 0.0  2  17  N
    -2.1656874715185173 9.50880239001209 0.0  3  18  Si
    -2.068822301518517 11.01952760001209 0.0  1  19  H
    -3.8918438215185174 8.16575426001209 0.0  3  20  Si
    -6.246298071518518 8.15776733001209 0.0  3  21  Si
    -6.808716191518518 8.892256980012089 -1.20183078  1  22  H
    -6.546111821518518 6.67867620001209 -0.08618332  1  23  H
    -6.8088286515185175 8.72259979001209 1.28814761  1  24  H
    -2.9624531815185176 6.095183030012089 0.0  3  25  Si
    -3.9119215415185176 4.8066469000120895 0.0  4  26  O
    -1.1715083115185174 5.92144756001209 0.0  2  27  N
    -0.8405169515185174 4.889090580012089 0.0  1  28  H
    0.13694990848148264 7.115993980012089 0.0  3  29  Si
    1.7028868384814826 6.8487471300120895 0.0  4  30  O
%endblock AtomicCoordinatesAndAtomicSpecies

%include ../../../../Defaults.fdf
