SystemLabel      AT

NumberOfAtoms    30

NumberOfSpecies  4
%block ChemicalSpeciesLabel
    1    1  H
    2    7  N
    3   14  Si
    4    8  O
%endblock ChemicalSpeciesLabel

# Single point calculation
MD.TypeOfRun                CG
MD.Steps                    0
SCF.MustConverge            F # In case it does not. There can be 2 very close atoms

AtomicCoordinatesFormat NotScaledCartesianAng
%block AtomicCoordinatesAndAtomicSpecies
2.582377650    -5.776830440   0.000000000       1
1.654759240    -5.269361980   0.000000000       2
0.063128840    -6.101704590   0.000000000       3
0.119223240    -7.596849500   0.000000000       1
-1.376892050   -5.182603740   0.000000000       2
-0.824371900   -3.460866440   0.000000000       3
-1.170571480   -1.270002100   0.000000000       3
-2.706933680   -0.417515780   0.000000000       2
-2.754569660   0.634858620    0.000000000       1
-3.637675640   -0.909967860   0.000000000       1
0.218091790    -0.234193970   0.000000000       2
1.872004100    -0.697162300   0.000000000       3
2.828001130    0.461464770    0.000000000       1
2.648150080    -2.255024470   0.000000000       2
1.391921380    -3.454727220   0.000000000       3
1.823660930    9.195661319    0.000000000       2
0.496289410    10.405865619   0.000000000       3
1.136290680    11.767183859   0.000000000       1
-1.589456530   9.735334269    0.000000000       3
-3.619019130   10.865450459   0.000000000       3
-3.464783360   12.025680669   0.940305280       1
-4.604953850   9.843529839    0.512613700       1
-4.035234090   11.341676309   -1.366678340      1
-1.522961110   7.461357649    0.000000000       3
-2.562009840   6.268298149    0.000000000       4
0.134030470    6.827382459    0.000000000       2
0.116013100    5.764937629    0.000000000       1
1.757633540    7.424452669    0.000000000       3
2.952649710    6.410027469    0.000000000       4
2.823698300    9.541168419    0.000000000       1
%endblock AtomicCoordinatesAndAtomicSpecies

%include ../../../Defaults.fdf
