# mpirun -np 4 siesta-4.1.5 < AT.fdf > AT.out &

SystemLabel      AT

NumberOfAtoms    30

NumberOfSpecies  4
%block ChemicalSpeciesLabel
    1    1  H
    2    7  N
    3   14  Si
    4    8  O
%endblock ChemicalSpeciesLabel

############################################
# This overrides Defaults.fdf configuration
############################################
MD.TypeOfRun                Verlet # CG, Verlet
MD.Steps                    0
MaxSCFIterations            200
SCF.MustConverge            F

AtomicCoordinatesFormat NotScaledCartesianAng
%block AtomicCoordinatesAndAtomicSpecies
    2.28494382 -5.19529124 0.0  1  1  H
    1.37433094 -4.6647107 0.0  2  2  N
    -0.21830245 -5.49458215 0.0  3  3  Si
    -0.17484108 -6.98516892 0.0  1  4  H
    -1.66171682 -4.58600741 0.0  2  5  N
    -1.09026419 -2.87456374 0.0  3  6  Si
    -1.53038332 -0.70765692 0.0  3  7  Si
    -3.14415959 -0.09186471 0.0  2  8  N
    -3.40268075 0.95848335 0.0  1  9  H
    -3.95073599 -0.76720972 0.0  1  10  H
    -0.17836637 0.41349951 0.0  2  11  N
    1.49520211 -0.0473996 0.0  3  12  Si
    2.45603905 1.10727302 0.0  1  13  H
    2.30451743 -1.58574382 0.0  2  14  N
    1.10725559 -2.84610319 0.0  3  15  Si
    0.64195979206717 7.0324065916701395 0.0  1  16  H
    -0.16675088793283005 6.340200711670139 0.0  2  17  N
    -1.82334072793283 7.053320811670139 0.0  3  18  Si
    -1.72647555793283 8.564046021670139 0.0  1  19  H
    -3.54949707793283 5.710272681670139 0.0  3  20  Si
    -5.90395132793283 5.702285751670139 0.0  3  21  Si
    -6.466369447932831 6.436775401670139 -1.20183078  1  22  H
    -6.203765077932831 4.223194621670139 -0.08618332  1  23  H
    -6.46648190793283 6.267118211670139 1.28814761  1  24  H
    -2.6201064379328303 3.6397014516701396 0.0  3  25  Si
    -3.5695747979328303 2.3511653216701394 0.0  4  26  O
    -0.8291615679328301 3.4659659816701396 0.0  2  27  N
    -0.49817020793283 2.4336090016701397 0.0  1  28  H
    0.4792966520671699 4.660512401670139 0.0  3  29  Si
    2.0452335820671697 4.393265551670139 0.0  4  30  O
%endblock AtomicCoordinatesAndAtomicSpecies

#############
# Unit Cell
#############
LatticeConstant 1.0 Ang
%block LatticeVectors
    30.00000    0.000000    0.000000
    0.000000    45.00000    0.000000
    0.000000    0.000000    10.00000
%endblock LatticeVectors

%include ../../../../Defaults.fdf
