# mpirun -np 4 siesta-4.1.5 < AT.fdf > AT.out &

SystemLabel      AT

NumberOfAtoms    30

NumberOfSpecies  4
%block ChemicalSpeciesLabel
    1    1  H
    2    7  N
    3   14  Si
    4    8  O
%endblock ChemicalSpeciesLabel

############################################
# This overrides Defaults.fdf configuration
############################################
MD.TypeOfRun                Verlet # CG, Verlet
MD.Steps                    0
MaxSCFIterations            300

AtomicCoordinatesFormat NotScaledCartesianAng
%block AtomicCoordinatesAndAtomicSpecies
    2.28494382 -5.19529124 0.0  1  1  H
    1.37433094 -4.6647107 0.0  2  2  N
    -0.21830245 -5.49458215 0.0  3  3  Si
    -0.17484108 -6.98516892 0.0  1  4  H
    -1.66171682 -4.58600741 0.0  2  5  N
    -1.09026419 -2.87456374 0.0  3  6  Si
    -1.53038332 -0.70765692 0.0  3  7  Si
    -3.14415959 -0.09186471 0.0  2  8  N
    -3.40268075 0.95848335 0.0  1  9  H
    -3.95073599 -0.76720972 0.0  1  10  H
    -0.17836637 0.41349951 0.0  2  11  N
    1.49520211 -0.0473996 0.0  3  12  Si
    2.45603905 1.10727302 0.0  1  13  H
    2.30451743 -1.58574382 0.0  2  14  N
    1.10725559 -2.84610319 0.0  3  15  Si
    0.6532899095209563 6.9511413387957255 0.0  1  16  H
    -0.15542077047904368 6.258935458795725 0.0  2  17  N
    -1.8120106104790437 6.972055558795725 0.0  3  18  Si
    -1.7151454404790436 8.482780768795726 0.0  1  19  H
    -3.5381669604790438 5.629007428795725 0.0  3  20  Si
    -5.892621210479044 5.621020498795725 0.0  3  21  Si
    -6.455039330479044 6.355510148795725 -1.20183078  1  22  H
    -6.192434960479044 4.141929368795725 -0.08618332  1  23  H
    -6.455151790479044 6.185852958795725 1.28814761  1  24  H
    -2.608776320479044 3.5584361987957256 0.0  3  25  Si
    -3.558244680479044 2.2699000687957254 0.0  4  26  O
    -0.8178314504790437 3.3847007287957256 0.0  2  27  N
    -0.48684009047904364 2.3523437487957257 0.0  1  28  H
    0.4906267695209563 4.579247148795725 0.0  3  29  Si
    2.056563699520956 4.312000298795725 0.0  4  30  O
%endblock AtomicCoordinatesAndAtomicSpecies

%include ../../../../Defaults.fdf
