# mpirun -np 4 siesta-4.1.5 < AT.fdf > AT.out &

SystemLabel      AT

NumberOfAtoms    30

NumberOfSpecies  4
%block ChemicalSpeciesLabel
    1    1  H
    2    7  N
    3   14  Si
    4    8  O
%endblock ChemicalSpeciesLabel

############################################
# This overrides Defaults.fdf configuration
############################################
MD.TypeOfRun                Verlet # CG, Verlet
MD.Steps                    0
MaxSCFIterations            300

AtomicCoordinatesFormat NotScaledCartesianAng
%block AtomicCoordinatesAndAtomicSpecies
    2.28494382 -5.19529124 0.0  1  1  H
    1.37433094 -4.6647107 0.0  2  2  N
    -0.21830245 -5.49458215 0.0  3  3  Si
    -0.17484108 -6.98516892 0.0  1  4  H
    -1.66171682 -4.58600741 0.0  2  5  N
    -1.09026419 -2.87456374 0.0  3  6  Si
    -1.53038332 -0.70765692 0.0  3  7  Si
    -3.14415959 -0.09186471 0.0  2  8  N
    -3.40268075 0.95848335 0.0  1  9  H
    -3.95073599 -0.76720972 0.0  1  10  H
    -0.17836637 0.41349951 0.0  2  11  N
    1.49520211 -0.0473996 0.0  3  12  Si
    2.45603905 1.10727302 0.0  1  13  H
    2.30451743 -1.58574382 0.0  2  14  N
    1.10725559 -2.84610319 0.0  3  15  Si
    0.7417091247808247 6.316954630991635 0.0  1  16  H
    -0.06700155521917531 5.6247487509916345 0.0  2  17  N
    -1.7235913952191753 6.337868850991635 0.0  3  18  Si
    -1.6267262252191752 7.848594060991634 0.0  1  19  H
    -3.449747745219175 4.994820720991634 0.0  3  20  Si
    -5.8042019952191755 4.986833790991635 0.0  3  21  Si
    -6.366620115219176 5.721323440991634 -1.20183078  1  22  H
    -6.104015745219176 3.5077426609916342 -0.08618332  1  23  H
    -6.366732575219175 5.551666250991635 1.28814761  1  24  H
    -2.5203571052191753 2.9242494909916346 0.0  3  25  Si
    -3.4698254652191753 1.6357133609916343 0.0  4  26  O
    -0.7294122352191753 2.7505140209916346 0.0  2  27  N
    -0.39842087521917524 1.7181570409916347 0.0  1  28  H
    0.5790459847808247 3.945060440991634 0.0  3  29  Si
    2.1449829147808246 3.6778135909916347 0.0  4  30  O
%endblock AtomicCoordinatesAndAtomicSpecies

%include ../../../../Defaults.fdf
