# mpirun -np 8 siesta-5 < AT.fdf > AT.out

SystemLabel      AT

NumberOfAtoms    30

NumberOfSpecies  4
%block ChemicalSpeciesLabel
    1    1  H   ../../../Pseudos/VW/H/H.psf
    2    7  N   ../../../Pseudos/VW/N/N.psf
    3    6  C   ../../../Pseudos/VW/C/C.psf
    4    8  O   ../../../Pseudos/VW/O/O.psf
%endblock ChemicalSpeciesLabel

############################################
# This overrides Defaults.fdf configuration
############################################
XC.Functional               VDW
XC.Authors                  DRSLL

MD.Steps                    1000

%block Geometry.Constraints
    atom [6]
%endblock

AtomicCoordinatesFormat NotScaledCartesianAng
%block AtomicCoordinatesAndAtomicSpecies
    6.52047157   -4.96159724    1.96254316   1       1  H
    5.75572897   -4.34634128    1.65054976   2       2  N
    4.35043051   -4.66429009    1.65888261   3       3  C
    4.03730297   -5.64380423    1.99564224   1       4  H
    3.53324438   -3.63456212    1.21447597   2       5  N
    4.53000000   -2.59400000    0.91000000   3       6  C
    4.29906835   -1.28300010    0.42922834   3       7  C
    3.00245674   -0.78150071    0.16272266   2       8  N
    2.90010886    0.27906189   -0.14381733   1       9  H
    2.23967817   -1.49389669    0.37570451   1      10  H
    5.42995101   -0.43173844    0.19849504   2      11  N
    6.71303066   -0.97637517    0.48735602   3      12  C
    7.55814342   -0.29765695    0.28834613   1      13  H
    7.05310698   -2.24998204    0.98256721   2      14  N
    5.85536105   -2.98895911    1.16041279   3      15  C
    6.69906845    4.82471221   -1.90712190   1      16  H
    5.84795297    4.27787886   -1.65630839   2      17  N
    4.50685381    4.80325966   -1.70020715   3      18  C
    4.34192890    5.83976003   -2.04653200   1      19  H
    3.41325662    4.06633279   -1.33662598   3      20  C
    2.01962077    4.61302014   -1.38422557   3      21  C
    1.75081767    4.89987518   -2.40714284   1      22  H
    1.30888039    3.85029468   -1.04125098   1      23  H
    1.91112760    5.49724686   -0.74388923   1      24  H
    3.57580434    2.69203650   -0.90375704   3      25  C
    2.62822412    1.94001154   -0.57583417   4      26  O
    4.93691634    2.18272930   -0.86071991   2      27  N
    5.06973901    1.18200311   -0.48203997   1      28  H
    6.14705904    2.90495403   -1.19340872   3      29  C
    7.28575500    2.45613527   -1.11491204   4      30  O
%endblock AtomicCoordinatesAndAtomicSpecies

#############
# Unit Cell
#############
LatticeConstant 1.0 Ang
%block LatticeVectors
    13.410444    0.000000    0.000000
    0.000000   19.141444    0.000000
    0.000000    0.000000   11.548144
%endblock LatticeVectors

%include ../../../Defaults.fdf