SystemLabel      GC

NumberOfAtoms    29

NumberOfSpecies  4
%block ChemicalSpeciesLabel
    1    8  O
    2    7  N
    3   14  Si
    4    1  H
%endblock ChemicalSpeciesLabel

# Single point calculation
MD.TypeOfRun                CG
MD.Steps                    0
SCF.MustConverge            F # In case it does not. There can be 2 very close atoms

AtomicCoordinatesFormat NotScaledCartesianAng
%block AtomicCoordinatesAndAtomicSpecies
0.854927710    3.902811360    0.000000000       1
-3.151486600   0.823854130    0.000000000       2
1.928518680    1.174000900    0.000000000       2
0.979899500    -1.830275890   0.000000000       2
-2.159258930   -2.028004800   0.000000000       2
3.785319770    -1.112700660   0.000000000       2
-1.345933810   0.976250250    0.000000000       3
-0.599439880   -1.096077170   0.000000000       3
0.453182890    2.350510230    0.000000000       3
2.133302030    -0.576510800   0.000000000       3
-3.516065660   -0.842056510   0.000000000       3
2.824527830    1.754723110    0.000000000       4
-4.877551690   -1.469214660   0.000000000       4
3.994952020    -2.143204000   0.000000000       4
4.620903610    -0.483666060   0.000000000       4
-2.279085180   -3.081514090   0.000000000       4
5.433528502    5.458633294    -0.000000000      3
7.302487992    6.718276924    -0.000000000      3
6.843555612    2.716895074    -0.000000000      3
8.911148332    5.223486294    -0.000000000      3
5.493058452    3.773680834    -0.000000000      2
3.803529302    6.088693524    -0.000000000      2
8.487444482    3.507985484    -0.000000000      2
7.582851692    8.188499444    -0.000000000      4
10.406559712   5.442338834    -0.000000000      4
3.559070312    7.107159474    -0.000000000      4
2.976788122    5.431845394    -0.000000000      4
6.902831372    1.134453044    -0.000000000      1
9.259100072    2.781018124    -0.000000000      4
%endblock AtomicCoordinatesAndAtomicSpecies

%include ../../../Defaults.fdf
