# mpirun -np 4 siesta-4.1.5 < AT.fdf > AT.out &

SystemLabel      AT

NumberOfAtoms    30

NumberOfSpecies  4
%block ChemicalSpeciesLabel
    1    1  H
    2    7  N
    3   14  Si
    4    8  O
%endblock ChemicalSpeciesLabel

############################################
# This overrides Defaults.fdf configuration
############################################
MD.TypeOfRun                Verlet # CG, Verlet
MD.Steps                    0
MaxSCFIterations            200
SCF.MustConverge            F

AtomicCoordinatesFormat NotScaledCartesianAng
%block AtomicCoordinatesAndAtomicSpecies
    2.28494382 -5.19529124 0.0  1  1  H
    1.37433094 -4.6647107 0.0  2  2  N
    -0.21830245 -5.49458215 0.0  3  3  Si
    -0.17484108 -6.98516892 0.0  1  4  H
    -1.66171682 -4.58600741 0.0  2  5  N
    -1.09026419 -2.87456374 0.0  3  6  Si
    -1.53038332 -0.70765692 0.0  3  7  Si
    -3.14415959 -0.09186471 0.0  2  8  N
    -3.40268075 0.95848335 0.0  1  9  H
    -3.95073599 -0.76720972 0.0  1  10  H
    -0.17836637 0.41349951 0.0  2  11  N
    1.49520211 -0.0473996 0.0  3  12  Si
    2.45603905 1.10727302 0.0  1  13  H
    2.30451743 -1.58574382 0.0  2  14  N
    1.10725559 -2.84610319 0.0  3  15  Si
    0.5549568414890249 7.656435142864929 0.0  1  16  H
    -0.25375383851097516 6.9642292628649285 0.0  2  17  N
    -1.910343678510975 7.677349362864929 0.0  3  18  Si
    -1.813478508510975 9.18807457286493 0.0  1  19  H
    -3.636500028510975 6.334301232864928 0.0  3  20  Si
    -5.9909542785109755 6.326314302864929 0.0  3  21  Si
    -6.553372398510976 7.060803952864928 -1.20183078  1  22  H
    -6.290768028510976 4.847223172864928 -0.08618332  1  23  H
    -6.553484858510975 6.8911467628649286 1.28814761  1  24  H
    -2.7071093885109754 4.2637300028649285 0.0  3  25  Si
    -3.6565777485109754 2.9751938728649283 0.0  4  26  O
    -0.9161645185109751 4.089994532864929 0.0  2  27  N
    -0.5851731585109751 3.0576375528649287 0.0  1  28  H
    0.3922937014890248 5.284540952864928 0.0  3  29  Si
    1.9582306314890248 5.017294102864929 0.0  4  30  O
%endblock AtomicCoordinatesAndAtomicSpecies

#############
# Unit Cell
#############
LatticeConstant 1.0 Ang
%block LatticeVectors
    30.00000    0.000000    0.000000
    0.000000    45.00000    0.000000
    0.000000    0.000000    10.00000
%endblock LatticeVectors

%include ../../../../Defaults.fdf
