# mpirun -np 4 siesta-4.1.5 < AT.fdf > AT.out &

SystemLabel      AT

NumberOfAtoms    30

NumberOfSpecies  4
%block ChemicalSpeciesLabel
    1    1  H
    2    7  N
    3   14  Si
    4    8  O
%endblock ChemicalSpeciesLabel

############################################
# This overrides Defaults.fdf configuration
############################################
MD.TypeOfRun                Verlet # CG, Verlet
MD.Steps                    0
MaxSCFIterations            300

AtomicCoordinatesFormat NotScaledCartesianAng
%block AtomicCoordinatesAndAtomicSpecies
    2.28494382 -5.19529124 0.0  1  1  H
    1.37433094 -4.6647107 0.0  2  2  N
    -0.21830245 -5.49458215 0.0  3  3  Si
    -0.17484108 -6.98516892 0.0  1  4  H
    -1.66171682 -4.58600741 0.0  2  5  N
    -1.09026419 -2.87456374 0.0  3  6  Si
    -1.53038332 -0.70765692 0.0  3  7  Si
    -3.14415959 -0.09186471 0.0  2  8  N
    -3.40268075 0.95848335 0.0  1  9  H
    -3.95073599 -0.76720972 0.0  1  10  H
    -0.17836637 0.41349951 0.0  2  11  N
    1.49520211 -0.0473996 0.0  3  12  Si
    2.45603905 1.10727302 0.0  1  13  H
    2.30451743 -1.58574382 0.0  2  14  N
    1.10725559 -2.84610319 0.0  3  15  Si
    0.5648706942610879 7.585328046599817 0.0  1  16  H
    -0.2438399857389121 6.893122166599817 0.0  2  17  N
    -1.900429825738912 7.606242266599817 0.0  3  18  Si
    -1.803564655738912 9.116967476599816 0.0  1  19  H
    -3.626586175738912 6.263194136599816 0.0  3  20  Si
    -5.981040425738913 6.255207206599817 0.0  3  21  Si
    -6.543458545738913 6.989696856599816 -1.20183078  1  22  H
    -6.280854175738913 4.776116076599816 -0.08618332  1  23  H
    -6.5435710057389125 6.820039666599817 1.28814761  1  24  H
    -2.697195535738912 4.192622906599817 0.0  3  25  Si
    -3.646663895738912 2.9040867765998164 0.0  4  26  O
    -0.9062506657389121 4.018887436599817 0.0  2  27  N
    -0.575259305738912 2.9865304565998168 0.0  1  28  H
    0.4022075542610879 5.213433856599816 0.0  3  29  Si
    1.9681444842610878 4.946187006599817 0.0  4  30  O
%endblock AtomicCoordinatesAndAtomicSpecies

%include ../../../../Defaults.fdf
