# Created by GDIS version 0.90.0
#

SystemLabel      2G

NumberOfAtoms    124

NumberOfSpecies  5
%block ChemicalSpeciesLabel
    1    1  H
    2    8  O
    3    6  C
    4    7  N
    5   15  P
%endblock ChemicalSpeciesLabel

AtomicCoordinatesFormat NotScaledCartesianAng
%block AtomicCoordinatesAndAtomicSpecies
     3.558000000    -8.101000000     3.380000000    1
     4.337000000    -7.542000000     3.330000000    2
     5.627000000    -8.157000000     3.190000000    3
     5.654000000    -8.750000000     2.276000000    1
     5.805000000    -8.805000000     4.048000000    1
     6.713000000    -7.099000000     3.130000000    3
     7.693000000    -7.576000000     3.118000000    1
     6.632000000    -6.405000000     1.860000000    2
     6.958000000    -5.037000000     2.040000000    3
     7.735000000    -4.759000000     1.327000000    1
     5.785000000    -4.219000000     1.620000000    4
     4.456000000    -4.566000000     1.600000000    3
     4.149000000    -5.551000000     1.919000000    1
     3.660000000    -3.609000000     1.170000000    4
     4.530000000    -2.553000000     0.900000000    3
     4.259000000    -1.254000000     0.410000000    3
     3.184000000    -0.747000000     0.110000000    2
     5.437000000    -0.504000000     0.270000000    4
     5.349000000     0.429000000    -0.079000000    1
     6.712000000    -0.955000000     0.570000000    3
     7.709000000    -0.094000000     0.370000000    4
     7.636000000     0.848000000     0.013000000    1
     8.640000000    -0.425000000     0.580000000    1
     6.966000000    -2.183000000     1.030000000    4
     5.830000000    -2.919000000     1.170000000    3
     6.601000000    -5.985000000     4.170000000    3
     5.567000000    -5.684000000     4.339000000    1
     7.355000000    -4.850000000     3.500000000    3
     7.493000000    -4.036000000     4.211000000    1
     8.328000000    -5.208000000     3.164000000    1
     7.183000000    -6.339000000     5.430000000    2
     7.170000000    -5.306000000     6.620000000    5
     8.139000000    -5.741000000     7.660000000    2
     5.786000000    -5.065000000     7.090000000    2
     7.724000000    -4.004000000     5.890000000    2
     9.142000000    -3.824000000     5.750000000    3
     9.484000000    -4.309000000     4.836000000    1
     9.642000000    -4.273000000     6.608000000    1
     9.484000000    -2.347000000     5.690000000    3
    10.566000000    -2.219000000     5.679000000    1
     9.041000000    -1.807000000     4.420000000    2
     8.577000000    -0.480000000     4.600000000    3
     9.080000000     0.174000000     3.888000000    1
     7.147000000    -0.425000000     4.180000000    4
     6.216000000    -1.435000000     4.160000000    3
     6.490000000    -2.430000000     4.479000000    1
     5.030000000    -1.060000000     3.730000000    4
     5.191000000     0.299000000     3.460000000    3
     4.262000000     1.246000000     2.970000000    3
     3.082000000     1.092000000     2.670000000    2
     4.847000000     2.513000000     2.830000000    4
     4.269000000     3.251000000     2.482000000    1
     6.165000000     2.822000000     3.130000000    3
     6.538000000     4.086000000     2.930000000    4
     5.967000000     4.839000000     2.573000000    1
     7.500000000     4.311000000     3.140000000    1
     7.041000000     1.926000000     3.590000000    4
     6.483000000     0.693000000     3.730000000    3
     8.788000000    -1.471000000     6.730000000    3
     7.756000000    -1.777000000     6.899000000    1
     8.809000000    -0.108000000     6.060000000    3
     8.485000000     0.652000000     6.771000000    1
     9.821000000     0.117000000     5.725000000    1
     9.469000000    -1.454000000     7.990000000    2
     9.056000000    -0.912000000     8.666000000    1
    -1.382000000     8.740000000    -0.820000000    1
    -0.425000000     8.690000000    -0.770000000    2
     0.329000000     9.905000000    -0.630000000    3
     0.031000000    10.418000000     0.285000000    1
     0.130000000    10.548000000    -1.488000000    1
     1.814000000     9.600000000    -0.570000000    3
     2.381000000    10.531000000    -0.559000000    1
     2.121000000     8.973000000     0.700000000    2
     3.134000000     7.998000000     0.520000000    3
     3.943000000     8.180000000     1.228000000    1
     2.589000000     6.675000000     0.940000000    4
     1.250000000     6.430000000     0.900000000    3
     0.567000000     7.199000000     0.570000000    1
     0.753000000     5.226000000     1.270000000    3
    -0.319000000     5.037000000     1.207000000    1
     1.697000000     4.243000000     1.720000000    3
     1.279000000     3.042000000     2.100000000    4
     1.975000000     2.379000000     2.410000000    1
     0.295000000     2.814000000     2.075000000    1
     3.017000000     4.490000000     1.760000000    4
     3.486000000     5.710000000     1.370000000    3
     4.696000000     5.989000000     1.390000000    2
     2.321000000     8.602000000    -1.610000000    3
     1.614000000     7.790000000    -1.780000000    1
     3.569000000     8.055000000    -0.940000000    3
     4.125000000     7.444000000    -1.651000000    1
     4.195000000     8.882000000    -0.605000000    1
     2.620000000     9.215000000    -2.870000000    2
     3.168000000     8.339000000    -4.060000000    5
     3.747000000     9.228000000    -5.100000000    2
     2.133000000     7.388000000    -4.530000000    2
     4.337000000     7.542000000    -3.330000000    2
     5.627000000     8.157000000    -3.190000000    3
     5.654000000     8.750000000    -2.276000000    1
     5.805000000     8.805000000    -4.048000000    1
     6.713000000     7.099000000    -3.130000000    3
     7.693000000     7.576000000    -3.118000000    1
     6.632000000     6.405000000    -1.860000000    2
     6.958000000     5.037000000    -2.040000000    3
     7.737000000     4.754000000    -1.332000000    1
     5.785000000     4.219000000    -1.620000000    4
     4.525000000     4.735000000    -1.660000000    3
     4.366000000     5.751000000    -1.990000000    1
     3.457000000     3.991000000    -1.290000000    3
     2.453000000     4.411000000    -1.353000000    1
     3.721000000     2.654000000    -0.840000000    3
     2.720000000     1.869000000    -0.460000000    4
     2.947000000     0.935000000    -0.150000000    1
     1.769000000     2.208000000    -0.486000000    1
     4.965000000     2.149000000    -0.800000000    4
     6.018000000     2.922000000    -1.190000000    3
     7.187000000     2.503000000    -1.170000000    2
     6.601000000     5.985000000    -4.170000000    3
     5.567000000     5.684000000    -4.339000000    1
     7.355000000     4.850000000    -3.500000000    3
     7.493000000     4.036000000    -4.211000000    1
     8.328000000     5.208000000    -3.164000000    1
     7.183000000     6.339000000    -5.430000000    2
     7.129000000     5.660000000    -6.106000000    1
%endblock AtomicCoordinatesAndAtomicSpecies

PAO.BasisType    split
PAO.BasisSize    DZP
SolutionMethod     diagon
PAO.SplitNorm    0.150000
PAO.EnergyShift    0.020000  Ry
Harris_functional    false
XC.functional    LDA
XC.Authors    PZ
SpinPolarized    false
MeshCutoff    100.000000 Ry
kgrid_cutoff    0.000000 Bohr
ElectronicTemperature    300.000000 K
MaxSCFIterations    50
DM.NumberPulay    0
DM.MixingWeight    0.250000
MD.TypeOfRun    CG
MD.VariableCell    false
MD.NumCGsteps    0
MD.MaxCGDispl    0.200000 Bohr
MD.PreconditionVariableCell    5.000000 Ang
MD.MaxStressTol    1.000000 GPa

%block MD.TargetStress
-1.000000 -1.000000 -1.000000 0.000000 0.000000 0.000000
%endblock MD.TargetStress

MD.MaxForceTol    0.040000 eV/Ang
MD.InitialTimeStep    1
MD.FinalTimeStep    1
MD.LengthTimeStep    1 fs
MD.InitialTemperature    0.000000 K
MD.Quench    false
MD.TargetTemperature    0.000000 K
MD.NoseMass    100.000000 Ry*fs**2
MD.ParrinelloRahmanMass    100.000000 Ry*fs**2
MD.AnnealOption    TemperatureandPressure
MD.TauRelax    100.000000 fs
MD.BulkModulus    100.000000 Ry/Bohr**3
MD.TargetPressure    0.000000 GPa
MD.FCDispl    0.040000 Bohr
MD.FCfirst    1
MD.FClast    0

UseSaveData		false
WriteCoorInital    true
WriteCoorStep    false
WriteForces		false
WriteKpoints		false
WriteEigenvalues		false
WriteKbands		false
WriteBands		false
WriteWaveFunctions		false
WriteMullikenPop		0
WriteDM		true
WriteCoorXmol		false
WriteCoorCerius		false
WriteMDXmol		false
WriteMDhistory		true
