SystemLabel      GC

NumberOfAtoms    29

NumberOfSpecies  4
%block ChemicalSpeciesLabel
    1    8  O
    2    7  N
    3   14  Si
    4    1  H
%endblock ChemicalSpeciesLabel

# Single point calculation
MD.TypeOfRun                CG
MD.Steps                    0
SCF.MustConverge            F # In case it does not. There can be 2 very close atoms

AtomicCoordinatesFormat NotScaledCartesianAng
%block AtomicCoordinatesAndAtomicSpecies
    0.95867151    3.80352930    0.00000000   1       1  O
   -3.03868821    0.99807333    0.00000000   2       2  N
    2.06656775    1.09906577    0.00000000   2       3  N
    1.02956986   -1.83468085    0.00000000   2       4  N
   -2.10856766   -1.88179824    0.00000000   2       5  N
    3.91241107   -1.18089443    0.00000000   2       6  N
   -1.23563679    1.04498300    0.00000000   3       7  Si
   -0.50190924   -1.03183228    0.00000000   3       8  Si
    0.62946328    2.23275584    0.00000000   3       9  Si
    2.28005437   -0.65829354    0.00000000   3      10  Si
   -3.42481299   -0.66232416    0.00000000   3      11  Si
    2.96597416    1.68226399    0.00000000   4      12  H
   -4.79622939   -1.23872848    0.00000000   4      13  H
    4.09655941   -2.21414876    0.00000000   4      14  H
    4.79210868   -0.52914725    0.00000000   4      15  H
   -2.26686130   -2.92239373    0.00000000   4      16  H
    4.56376227    4.86476496    0.00000000   3      17  Si
    6.48924002    6.05639429    0.00000000   3      18  Si
    6.02443363    2.13021059    0.00000000   3      19  Si
    8.09561355    4.57725718    0.00000000   3      20  Si
    4.66604681    3.15541027    0.00000000   2      21  N
    2.98438418    5.53499445    0.00000000   2      22  N
    7.67750353    2.84537427    0.00000000   2      23  N
    6.79773084    7.52105565    0.00000000   4      24  H
    9.58728646    4.77723664    0.00000000   4      25  H
    2.79975774    6.56986818    0.00000000   4      26  H
    2.09229239    4.86370572    0.00000000   4      27  H
    6.01430303    0.53198207    0.00000000   1      28  O
    8.45410191    2.12354407    0.00000000   4      29  H
%endblock AtomicCoordinatesAndAtomicSpecies

%include ../../../Defaults.fdf
