# mpirun -np 8 siesta-5 < GC.fdf > GC.out &

SystemLabel      GC

NumberOfAtoms    29

NumberOfSpecies  4
%block ChemicalSpeciesLabel
    1    1  H ../../../Pseudos/VW/H/H.psf
    2    7  N ../../../Pseudos/VW/N/N.psf
    3   14  Si ../../../Pseudos/VW/Si/Si.psf
    4    8  O ../../../Pseudos/VW/O/O.psf
%endblock ChemicalSpeciesLabel

############################################
# This overrides Defaults.fdf configuration
############################################
MD.Steps                    1000

%block Geometry.Constraints
    atom all 0.0 0.0 1.0 # constrain along z Cartesian vector
    atom [7]
%endblock


AtomicCoordinatesFormat NotScaledCartesianAng
%block AtomicCoordinatesAndAtomicSpecies
    0.99466806    3.58032984    0.00000000   1       1  H
    0.28363298    2.81202576    0.00000000   2       2  N
   -1.43680539    3.28028103    0.00000000   3       3  Si
   -1.58784427    4.75825624    0.00000000   1       4  H
   -2.91825243    1.68367821    0.00000000   3       5  Si
   -4.39762002    1.83346656    0.00000000   1       6  H
   -1.72458961   -0.22740243    0.00000000   3       7  Si
   -2.48452746   -1.75028589    0.00000000   2       8  N
   -1.97849722   -2.68073656    0.00000000   1       9  H
   -3.49163488   -1.92228569    0.00000000   1      10  H
   -0.02896456   -0.15929827    0.00000000   2      11  N
    1.02149313    1.17310894    0.00000000   3      12  Si
    2.60909544    1.17703994    0.00000000   4      13  O
    5.65591860   -7.46824833    0.00000000   1      14  H
    4.63025118   -7.26907570    0.00000000   2      15  N
    3.34849335   -8.53314195    0.00000000   3      16  Si
    3.81568662   -9.93102457    0.00000000   1      17  H
    1.72746749   -8.05196935    0.00000000   2      18  N
    1.73332541   -6.24387630    0.00000000   3      19  Si
    0.57167742   -4.35431028    0.00000000   3      20  Si
   -0.99059700   -4.03240941    0.00000000   4      21  O
    1.74760562   -2.93310526    0.00000000   2      22  N
    1.21540598   -2.00908239    0.00000000   1      23  H
    3.51464287   -2.81401757    0.00000000   3      24  Si
    4.11948213   -1.21085069    0.00000000   2      25  N
    3.50795467   -0.33341948    0.00000000   1      26  H
    5.15342033   -1.06258823    0.00000000   1      27  H
    4.62341703   -4.10090774    0.00000000   2      28  N
    3.83325823   -5.62601379    0.00000000   3      29  Si
%endblock AtomicCoordinatesAndAtomicSpecies

#############
# Unit Cell
#############
LatticeConstant 1.0 Ang
%block LatticeVectors
    18.663680   0.000000     0.000000
    0.000000    23.664587    0.000000
    0.000000    0.000000     9.854683
%endblock LatticeVectors

%include ../../../Defaults.fdf