SystemLabel      GC

NumberOfAtoms    29

NumberOfSpecies  4
%block ChemicalSpeciesLabel
    1    8  O
    2    7  N
    3   14  Si
    4    1  H
%endblock ChemicalSpeciesLabel

# Single point calculation
MD.TypeOfRun                CG
MD.Steps                    0
SCF.MustConverge            F # In case it does not. There can be 2 very close atoms

AtomicCoordinatesFormat NotScaledCartesianAng
%block AtomicCoordinatesAndAtomicSpecies
0.854927710    3.902811360    0.000000000       1
-3.151486600   0.823854130    0.000000000       2
1.928518680    1.174000900    0.000000000       2
0.979899500    -1.830275890   0.000000000       2
-2.159258930   -2.028004800   0.000000000       2
3.785319770    -1.112700660   0.000000000       2
-1.345933810   0.976250250    0.000000000       3
-0.599439880   -1.096077170   0.000000000       3
0.453182890    2.350510230    0.000000000       3
2.133302030    -0.576510800   0.000000000       3
-3.516065660   -0.842056510   0.000000000       3
2.824527830    1.754723110    0.000000000       4
-4.877551690   -1.469214660   0.000000000       4
3.994952020    -2.143204000   0.000000000       4
4.620903610    -0.483666060   0.000000000       4
-2.279085180   -3.081514090   0.000000000       4
6.920911046    6.530456171    -0.000000000      3
8.789870536    7.790099801    -0.000000000      3
8.330938156    3.788717951    -0.000000000      3
10.398530876   6.295309171    -0.000000000      3
6.980440996    4.845503711    -0.000000000      2
5.290911846    7.160516401    -0.000000000      2
9.974827026    4.579808361    -0.000000000      2
9.070234236    9.260322321    -0.000000000      4
11.893942256   6.514161711    -0.000000000      4
5.046452856    8.178982351    -0.000000000      4
4.464170666    6.503668271    -0.000000000      4
8.390213916    2.206275921    -0.000000000      1
10.746482616   3.852841001    -0.000000000      4
%endblock AtomicCoordinatesAndAtomicSpecies

%include ../../../Defaults.fdf
