SystemLabel      GC

NumberOfAtoms    29

NumberOfSpecies  4
%block ChemicalSpeciesLabel
    1    8  O
    2    7  N
    3   14  Si
    4    1  H
%endblock ChemicalSpeciesLabel

# Single point calculation
MD.TypeOfRun                CG
MD.Steps                    0
SCF.MustConverge            F # In case it does not. There can be 2 very close atoms

AtomicCoordinatesFormat NotScaledCartesianAng
%block AtomicCoordinatesAndAtomicSpecies
0.854927710    3.902811360    0.000000000       1
-3.151486600   0.823854130    0.000000000       2
1.928518680    1.174000900    0.000000000       2
0.979899500    -1.830275890   0.000000000       2
-2.159258930   -2.028004800   0.000000000       2
3.785319770    -1.112700660   0.000000000       2
-1.345933810   0.976250250    0.000000000       3
-0.599439880   -1.096077170   0.000000000       3
0.453182890    2.350510230    0.000000000       3
2.133302030    -0.576510800   0.000000000       3
-3.516065660   -0.842056510   0.000000000       3
2.824527830    1.754723110    0.000000000       4
-4.877551690   -1.469214660   0.000000000       4
3.994952020    -2.143204000   0.000000000       4
4.620903610    -0.483666060   0.000000000       4
-2.279085180   -3.081514090   0.000000000       4
5.547942544    5.541081207    -0.000000000      3
7.416902034    6.800724837    -0.000000000      3
6.957969654    2.799342987    -0.000000000      3
9.025562374    5.305934207    -0.000000000      3
5.607472494    3.856128747    -0.000000000      2
3.917943344    6.171141437    -0.000000000      2
8.601858524    3.590433397    -0.000000000      2
7.697265734    8.270947357    -0.000000000      4
10.520973754   5.524786747    -0.000000000      4
3.673484354    7.189607387    -0.000000000      4
3.091202164    5.514293307    -0.000000000      4
7.017245414    1.216900957    -0.000000000      1
9.373514114    2.863466037    -0.000000000      4
%endblock AtomicCoordinatesAndAtomicSpecies

%include ../../../Defaults.fdf
