# mpirun -np 4 siesta-4.1.5 < GC.fdf > GC.out &

SystemLabel      GC

NumberOfAtoms    29

NumberOfSpecies  4
%block ChemicalSpeciesLabel
    1    1  H
    2    7  N
    3   14  Si
    4    8  O
%endblock ChemicalSpeciesLabel

############################################
# This overrides Defaults.fdf configuration
############################################
MD.TypeOfRun                Verlet # CG, Verlet
MD.Steps                    0
MaxSCFIterations            200
SCF.MustConverge            F

AtomicCoordinatesFormat NotScaledCartesianAng
%block AtomicCoordinatesAndAtomicSpecies
    -0.659657268669726 6.118759564478891 0.0  1  1  H
    -1.366143998669726 5.3287233844788915 0.0  2  2  N
    -3.096430908669726 5.770087294478891 0.0  3  3  Si
    -3.252210588669726 7.2600795544788905 0.0  1  4  H
    -4.619752528669726 4.211179774478891 0.0  3  5  Si
    -6.1029401586697265 4.4540101344788905 0.0  1  6  H
    -3.421361668669726 2.2979036144788907 0.0  3  7  Si
    -4.187387128669726 0.7651868744788908 0.0  2  8  N
    -3.597140578669726 -0.19202615552110913 0.0  1  9  H
    -5.239009448669726 0.6847266444788909 0.0  1  10  H
    -1.7051616086697259 2.3530779244788906 0.0  2  11  N
    -0.630138988669726 3.683416764478891 0.0  3  12  Si
    0.9785343313302739 3.6646065044788907 0.0  4  13  O
    5.6164483 -7.44953905 0.0  1  14  H
    4.58206954 -7.2320376 0.0  2  15  N
    3.29666389 -8.492636 0.0  3  16  Si
    3.80117524 -9.90371886 -0.0  1  17  H
    1.65934232 -8.01362137 0.0  2  18  N
    1.68097912 -6.20463398 -0.0  3  19  Si
    0.54543521 -4.28636135 0.0  3  20  Si
    -1.03431493 -3.94450034 0.0  4  21  O
    1.73226934 -2.87719605 0.0  2  22  N
    1.20957366 -1.92961761 -0.0  1  23  H
    3.50853448 -2.77677601 0.0  3  24  Si
    4.13684451 -1.17938608 0.0  2  25  N
    3.54296161 -0.26248101 0.0  1  26  H
    5.18364407 -1.05231197 -0.0  1  27  H
    4.63288658 -4.07521596 -0.0  2  28  N
    3.79410501 -5.58634043 0.0  3  29  Si
%endblock AtomicCoordinatesAndAtomicSpecies

#############
# Unit Cell
#############
LatticeConstant 1.0 Ang
%block LatticeVectors
    30.00000    0.000000    0.000000
    0.000000    45.00000    0.000000
    0.000000    0.000000    10.00000
%endblock LatticeVectors

%include ../../../../Defaults.fdf