# mpirun -np 4 siesta-4.1.5 < GC.fdf > GC.out &

SystemLabel      GC

NumberOfAtoms    29

NumberOfSpecies  4
%block ChemicalSpeciesLabel
    1    1  H
    2    7  N
    3   14  Si
    4    8  O
%endblock ChemicalSpeciesLabel

############################################
# This overrides Defaults.fdf configuration
############################################
MD.TypeOfRun                CG # CG, Verlet
MD.Steps                    0
MaxSCFIterations            600

AtomicCoordinatesFormat NotScaledCartesianAng
%block AtomicCoordinatesAndAtomicSpecies
    -0.6453570594893876 6.097476561558196 0.0  1  1  H
    -1.3518437894893875 5.307440381558196 0.0  2  2  N
    -3.0821306994893876 5.748804291558196 0.0  3  3  Si
    -3.2379103794893878 7.238796551558195 0.0  1  4  H
    -4.6054523194893875 4.189896771558196 0.0  3  5  Si
    -6.088639949489388 4.432727131558195 0.0  1  6  H
    -3.4070614594893875 2.2766206115581955 0.0  3  7  Si
    -4.173086919489387 0.7439038715581956 0.0  2  8  N
    -3.5828403694893876 -0.21330915844180431 0.0  1  9  H
    -5.224709239489387 0.6634436415581957 0.0  1  10  H
    -1.6908613994893875 2.3317949215581955 0.0  2  11  N
    -0.6158387794893876 3.662133761558196 0.0  3  12  Si
    0.9928345405106123 3.6433235015581955 0.0  4  13  O
    5.6164483 -7.44953905 0.0  1  14  H
    4.58206954 -7.2320376 0.0  2  15  N
    3.29666389 -8.492636 0.0  3  16  Si
    3.80117524 -9.90371886 -0.0  1  17  H
    1.65934232 -8.01362137 0.0  2  18  N
    1.68097912 -6.20463398 -0.0  3  19  Si
    0.54543521 -4.28636135 0.0  3  20  Si
    -1.03431493 -3.94450034 0.0  4  21  O
    1.73226934 -2.87719605 0.0  2  22  N
    1.20957366 -1.92961761 -0.0  1  23  H
    3.50853448 -2.77677601 0.0  3  24  Si
    4.13684451 -1.17938608 0.0  2  25  N
    3.54296161 -0.26248101 0.0  1  26  H
    5.18364407 -1.05231197 -0.0  1  27  H
    4.63288658 -4.07521596 -0.0  2  28  N
    3.79410501 -5.58634043 0.0  3  29  Si
%endblock AtomicCoordinatesAndAtomicSpecies

%include ../../../../Defaults.fdf