# mpirun -np 4 siesta-4.1.5 < AT.fdf > AT.out &

SystemLabel      AT

NumberOfAtoms    30

NumberOfSpecies  4
%block ChemicalSpeciesLabel
    1    1  H
    2    7  N
    3   14  Si
    4    8  O
%endblock ChemicalSpeciesLabel

############################################
# This overrides Defaults.fdf configuration
############################################
MD.TypeOfRun                Verlet # CG, Verlet
MD.Steps                    0
MaxSCFIterations            200
SCF.MustConverge            F

AtomicCoordinatesFormat NotScaledCartesianAng
%block AtomicCoordinatesAndAtomicSpecies
    2.28494382 -5.19529124 0.0  1  1  H
    1.37433094 -4.6647107 0.0  2  2  N
    -0.21830245 -5.49458215 0.0  3  3  Si
    -0.17484108 -6.98516892 0.0  1  4  H
    -1.66171682 -4.58600741 0.0  2  5  N
    -1.09026419 -2.87456374 0.0  3  6  Si
    -1.53038332 -0.70765692 0.0  3  7  Si
    -3.14415959 -0.09186471 0.0  2  8  N
    -3.40268075 0.95848335 0.0  1  9  H
    -3.95073599 -0.76720972 0.0  1  10  H
    -0.17836637 0.41349951 0.0  2  11  N
    1.49520211 -0.0473996 0.0  3  12  Si
    2.45603905 1.10727302 0.0  1  13  H
    2.30451743 -1.58574382 0.0  2  14  N
    1.10725559 -2.84610319 0.0  3  15  Si
    0.33744946504366213 9.216506520851903 0.0  1  16  H
    -0.4712612149563379 8.524300640851902 0.0  2  17  N
    -2.127851054956338 9.237420740851903 0.0  3  18  Si
    -2.030985884956338 10.748145950851901 0.0  1  19  H
    -3.854007404956338 7.894372610851901 0.0  3  20  Si
    -6.208461654956338 7.886385680851902 0.0  3  21  Si
    -6.770879774956338 8.620875330851902 -1.20183078  1  22  H
    -6.508275404956338 6.407294550851901 -0.08618332  1  23  H
    -6.770992234956338 8.451218140851902 1.28814761  1  24  H
    -2.9246167649563377 5.823801380851902 0.0  3  25  Si
    -3.8740851249563377 4.535265250851902 0.0  4  26  O
    -1.133671894956338 5.650065910851902 0.0  2  27  N
    -0.8026805349563378 4.617708930851902 0.0  1  28  H
    0.1747863250436621 6.844612330851901 0.0  3  29  Si
    1.740723255043662 6.577365480851902 0.0  4  30  O
%endblock AtomicCoordinatesAndAtomicSpecies

#############
# Unit Cell
#############
LatticeConstant 1.0 Ang
%block LatticeVectors
    30.00000    0.000000    0.000000
    0.000000    45.00000    0.000000
    0.000000    0.000000    10.00000
%endblock LatticeVectors

%include ../../../../Defaults.fdf
