SystemLabel      AT

NumberOfAtoms    30

NumberOfSpecies  4
%block ChemicalSpeciesLabel
    1    1  H
    2    7  N
    3   14  Si
    4    8  O
%endblock ChemicalSpeciesLabel

# Single point calculation
MD.TypeOfRun                CG
MD.Steps                    0
SCF.MustConverge            F # In case it does not. There can be 2 very close atoms

AtomicCoordinatesFormat NotScaledCartesianAng
%block AtomicCoordinatesAndAtomicSpecies
2.582377650    -5.776830440   0.000000000       1
1.654759240    -5.269361980   0.000000000       2
0.063128840    -6.101704590   0.000000000       3
0.119223240    -7.596849500   0.000000000       1
-1.376892050   -5.182603740   0.000000000       2
-0.824371900   -3.460866440   0.000000000       3
-1.170571480   -1.270002100   0.000000000       3
-2.706933680   -0.417515780   0.000000000       2
-2.754569660   0.634858620    0.000000000       1
-3.637675640   -0.909967860   0.000000000       1
0.218091790    -0.234193970   0.000000000       2
1.872004100    -0.697162300   0.000000000       3
2.828001130    0.461464770    0.000000000       1
2.648150080    -2.255024470   0.000000000       2
1.391921380    -3.454727220   0.000000000       3
1.886042351    5.529525342    0.000000000       2
0.558670831    6.739729642    0.000000000       3
1.198672101    8.101047882    0.000000000       1
-1.527075109   6.069198292    0.000000000       3
-3.556637709   7.199314482    0.000000000       3
-3.402401939   8.359544692    0.940305280       1
-4.542572429   6.177393862    0.512613700       1
-3.972852669   7.675540332    -1.366678340      1
-1.460579689   3.795221672    0.000000000       3
-2.499628419   2.602162172    0.000000000       4
0.196411891    3.161246482    0.000000000       2
0.178394521    2.098801652    0.000000000       1
1.820014961    3.758316692    0.000000000       3
3.015031131    2.743891492    0.000000000       4
2.886079721    5.875032442    0.000000000       1
%endblock AtomicCoordinatesAndAtomicSpecies

%include ../../../Defaults.fdf
