SystemLabel      AT

NumberOfAtoms    30

NumberOfSpecies  4
%block ChemicalSpeciesLabel
    1    1  H
    2    7  N
    3   14  Si
    4    8  O
%endblock ChemicalSpeciesLabel

# Single point calculation
MD.TypeOfRun                CG
MD.Steps                    0
SCF.MustConverge            F # In case it does not. There can be 2 very close atoms

AtomicCoordinatesFormat NotScaledCartesianAng
%block AtomicCoordinatesAndAtomicSpecies
2.582377650    -5.776830440   0.000000000       1
1.654759240    -5.269361980   0.000000000       2
0.063128840    -6.101704590   0.000000000       3
0.119223240    -7.596849500   0.000000000       1
-1.376892050   -5.182603740   0.000000000       2
-0.824371900   -3.460866440   0.000000000       3
-1.170571480   -1.270002100   0.000000000       3
-2.706933680   -0.417515780   0.000000000       2
-2.754569660   0.634858620    0.000000000       1
-3.637675640   -0.909967860   0.000000000       1
0.218091790    -0.234193970   0.000000000       2
1.872004100    -0.697162300   0.000000000       3
2.828001130    0.461464770    0.000000000       1
2.648150080    -2.255024470   0.000000000       2
1.391921380    -3.454727220   0.000000000       3
1.871646639    6.375556721    0.000000000       2
0.544275119    7.585761021    0.000000000       3
1.184276389    8.947079261    0.000000000       1
-1.541470821   6.915229671    0.000000000       3
-3.571033421   8.045345861    0.000000000       3
-3.416797651   9.205576071    0.940305280       1
-4.556968141   7.023425241    0.512613700       1
-3.987248381   8.521571711    -1.366678340      1
-1.474975401   4.641253051    0.000000000       3
-2.514024131   3.448193551    0.000000000       4
0.182016179    4.007277861    0.000000000       2
0.163998809    2.944833031    0.000000000       1
1.805619249    4.604348071    0.000000000       3
3.000635419    3.589922871    0.000000000       4
2.871684009    6.721063821    0.000000000       1
%endblock AtomicCoordinatesAndAtomicSpecies

%include ../../../Defaults.fdf
