SystemLabel      GC

NumberOfAtoms    29

NumberOfSpecies  4
%block ChemicalSpeciesLabel
    1    8  O
    2    7  N
    3   14  Si
    4    1  H
%endblock ChemicalSpeciesLabel

# Single point calculation
MD.TypeOfRun                CG
MD.Steps                    0
SCF.MustConverge            F # In case it does not. There can be 2 very close atoms

AtomicCoordinatesFormat NotScaledCartesianAng
%block AtomicCoordinatesAndAtomicSpecies
0.854927710    3.902811360    0.000000000       1
-3.151486600   0.823854130    0.000000000       2
1.928518680    1.174000900    0.000000000       2
0.979899500    -1.830275890   0.000000000       2
-2.159258930   -2.028004800   0.000000000       2
3.785319770    -1.112700660   0.000000000       2
-1.345933810   0.976250250    0.000000000       3
-0.599439880   -1.096077170   0.000000000       3
0.453182890    2.350510230    0.000000000       3
2.133302030    -0.576510800   0.000000000       3
-3.516065660   -0.842056510   0.000000000       3
2.824527830    1.754723110    0.000000000       4
-4.877551690   -1.469214660   0.000000000       4
3.994952020    -2.143204000   0.000000000       4
4.620903610    -0.483666060   0.000000000       4
-2.279085180   -3.081514090   0.000000000       4
4.861458293    5.046393726    -0.000000000      3
6.730417783    6.306037356    -0.000000000      3
6.271485403    2.304655506    -0.000000000      3
8.339078123    4.811246726    -0.000000000      3
4.920988243    3.361441266    -0.000000000      2
3.231459093    5.676453956    -0.000000000      2
7.915374273    3.095745916    -0.000000000      2
7.010781483    7.776259876    -0.000000000      4
9.834489503    5.030099266    -0.000000000      4
2.987000103    6.694919906    -0.000000000      4
2.404717913    5.019605826    -0.000000000      4
6.330761163    0.722213476    -0.000000000      1
8.687029863    2.368778556    -0.000000000      4
%endblock AtomicCoordinatesAndAtomicSpecies

%include ../../../Defaults.fdf
