# mpirun -np 4 siesta-4.1.5 < GC.fdf > GC.out &

SystemLabel      GC

NumberOfAtoms    29

NumberOfSpecies  4
%block ChemicalSpeciesLabel
    1    1  H
    2    7  N
    3   14  Si
    4    8  O
%endblock ChemicalSpeciesLabel

############################################
# This overrides Defaults.fdf configuration
############################################
MD.TypeOfRun                Verlet # CG, Verlet
MD.Steps                    0
MaxSCFIterations            200
SCF.MustConverge            F

AtomicCoordinatesFormat NotScaledCartesianAng
%block AtomicCoordinatesAndAtomicSpecies
    0.7279734478449942 4.053548614066085 0.0  1  1  H
    0.02148671784499423 3.2635124340660857 0.0  2  2  N
    -1.7088001921550058 3.7048763440660855 0.0  3  3  Si
    -1.8645798721550058 5.194868604066086 0.0  1  4  H
    -3.2321218121550057 2.1459688240660855 0.0  3  5  Si
    -4.715309442155006 2.3887991840660856 0.0  1  6  H
    -2.0337309521550058 0.23269266406608546 0.0  3  7  Si
    -2.7997564121550056 -1.3000240759339146 0.0  2  8  N
    -2.2095098621550058 -2.2572371059339145 0.0  1  9  H
    -3.8513787321550055 -1.3804843059339145 0.0  1  10  H
    -0.3175308921550058 0.2878669740660854 0.0  2  11  N
    0.7574917278449942 1.6182058140660855 0.0  3  12  Si
    2.3661650478449943 1.5993955540660856 0.0  4  13  O
    5.6164483 -7.44953905 0.0  1  14  H
    4.58206954 -7.2320376 0.0  2  15  N
    3.29666389 -8.492636 0.0  3  16  Si
    3.80117524 -9.90371886 -0.0  1  17  H
    1.65934232 -8.01362137 0.0  2  18  N
    1.68097912 -6.20463398 -0.0  3  19  Si
    0.54543521 -4.28636135 0.0  3  20  Si
    -1.03431493 -3.94450034 0.0  4  21  O
    1.73226934 -2.87719605 0.0  2  22  N
    1.20957366 -1.92961761 -0.0  1  23  H
    3.50853448 -2.77677601 0.0  3  24  Si
    4.13684451 -1.17938608 0.0  2  25  N
    3.54296161 -0.26248101 0.0  1  26  H
    5.18364407 -1.05231197 -0.0  1  27  H
    4.63288658 -4.07521596 -0.0  2  28  N
    3.79410501 -5.58634043 0.0  3  29  Si
%endblock AtomicCoordinatesAndAtomicSpecies

#############
# Unit Cell
#############
LatticeConstant 1.0 Ang
%block LatticeVectors
    30.00000    0.000000    0.000000
    0.000000    45.00000    0.000000
    0.000000    0.000000    10.00000
%endblock LatticeVectors

%include ../../../../Defaults.fdf