SystemLabel      GC

NumberOfAtoms    29

NumberOfSpecies  4
%block ChemicalSpeciesLabel
    1    8  O
    2    7  N
    3   14  Si
    4    1  H
%endblock ChemicalSpeciesLabel

# Single point calculation
MD.TypeOfRun                CG
MD.Steps                    0
SCF.MustConverge            F # In case it does not. There can be 2 very close atoms

AtomicCoordinatesFormat NotScaledCartesianAng
%block AtomicCoordinatesAndAtomicSpecies
0.854927710    3.902811360    0.000000000       1
-3.151486600   0.823854130    0.000000000       2
1.928518680    1.174000900    0.000000000       2
0.979899500    -1.830275890   0.000000000       2
-2.159258930   -2.028004800   0.000000000       2
3.785319770    -1.112700660   0.000000000       2
-1.345933810   0.976250250    0.000000000       3
-0.599439880   -1.096077170   0.000000000       3
0.453182890    2.350510230    0.000000000       3
2.133302030    -0.576510800   0.000000000       3
-3.516065660   -0.842056510   0.000000000       3
2.824527830    1.754723110    0.000000000       4
-4.877551690   -1.469214660   0.000000000       4
3.994952020    -2.143204000   0.000000000       4
4.620903610    -0.483666060   0.000000000       4
-2.279085180   -3.081514090   0.000000000       4
8.179465507    7.437383220    -0.000000000      3
10.048424997   8.697026850    -0.000000000      3
9.589492617    4.695645000    -0.000000000      3
11.657085337   7.202236220    -0.000000000      3
8.238995457    5.752430760    -0.000000000      2
6.549466307    8.067443450    -0.000000000      2
11.233381487   5.486735410    -0.000000000      2
10.328788697   10.167249370   -0.000000000      4
13.152496717   7.421088760    -0.000000000      4
6.305007317    9.085909400    -0.000000000      4
5.722725127    7.410595320    -0.000000000      4
9.648768377    3.113202970    -0.000000000      1
12.005037077   4.759768050    -0.000000000      4
%endblock AtomicCoordinatesAndAtomicSpecies

%include ../../../Defaults.fdf
