SystemLabel      10G_Chain

NumberOfAtoms    636

NumberOfSpecies  5
%block ChemicalSpeciesLabel
    1   14  Si
    2    1  H
    3    8  O
    4    7  N
    5   15  P
%endblock ChemicalSpeciesLabel

############################################
# This overrides Defaults.fdf configuration
############################################
UseSaveData                 T

MD.TypeOfRun                Verlet # CG, Verlet
MD.Steps                    2000
MD.Quench                   True
SCF.H.Tolerance             0.00005 eV
SCF.DM.Tolerance            0.00005
MD.MaxForceTol              0.05 eV/Ang

SCF.MustConverge            F
MD.LengthTimeStep           0.1 fs

#weight 0.07
SCF.Mixer.Restart.Save	    4
SCF.Mixer.History           10
SCF.Mixer.Weight	        0.1

AtomicCoordinatesFormat NotScaledCartesianAng
%block AtomicCoordinatesAndAtomicSpecies
   -1.73746203   16.90617901    2.95747013   1       1  Si
   -2.40795839   15.82111602    3.76174332   2       2  H
   -1.33942050   18.06913096    3.84741582   2       3  H
    0.31612798   16.02470960    2.17195696   1       4  Si
    1.16199939   16.09223863    3.41290249   2       5  H
    0.17748343   14.29523791    1.83323428   3       6  O
   -0.17914525   13.74081267    0.22503384   1       7  Si
    0.80323828   12.67763486   -0.17461063   2       8  H
    1.05089146   17.10900538    0.20317729   1       9  Si
    0.53379090   18.52140018    0.17466528   2      10  H
   -0.22474337   15.66909126   -1.17467136   1      11  Si
   -1.60652413   16.27081010   -1.31208867   2      12  H
    0.35668861   15.37178206   -2.53674922   2      13  H
   -0.31757410    2.08710172    0.19966167   4      14  N
   -1.89994669    1.33907985    0.71795869   1      15  Si
   -2.05208917   -0.09247997    0.34949425   2      16  H
   -3.16596651    2.25756747    1.38430642   4      17  N
   -2.59710336    3.95338027    1.54321649   1      18  Si
   -3.48609578    5.86085645    0.50681684   1      19  Si
   -4.99183515    6.38223941    0.26287257   3      20  O
   -2.05512807    6.94729590    0.26361633   4      21  N
   -2.32067277    8.00393299    0.26095655   2      22  H
   -0.30204899    6.62830589    0.19674438   1      23  Si
    0.68560270    8.00167321    0.35912995   4      24  N
    0.35626737    9.07960239    0.34923931   2      25  H
    1.72424321    7.83186405    0.26973769   2      26  H
    0.49082676    5.10400021   -0.03842482   4      27  N
   -0.59769233    3.85477648    0.37672341   1      28  Si
   -1.80991951   12.76124670    0.28063294   4      29  N
   -3.41376779   13.52440040    0.26713432   1      30  Si
   -3.21172675   15.01450784    0.26208330   2      31  H
   -5.31132859   12.46802674    0.92259203   1      32  Si
   -6.42235208   12.94532508   -0.00039194   2      33  H
   -4.61064550   10.36165940    0.29504456   1      34  Si
   -5.74309560    9.05667051    0.25481541   4      35  N
   -5.46133302    8.00580648    0.17700028   2      36  H
   -6.77944875    9.25863042    0.26182064   2      37  H
   -2.95137509    9.87317215    0.31920299   4      38  N
   -1.62821588   10.96346875    0.31709080   1      39  Si
   -0.09055373   10.51731582    0.26295867   3      40  O
   -1.60507683   -2.51646323   -1.22569803   3      41  O
   -0.38498010   -1.97983375   -2.36424143   1      42  Si
   -0.98134840   -0.89785759   -3.23676997   2      43  H
    0.00086699   -3.14758915   -3.23735469   2      44  H
    1.72278756   -1.22213879   -1.47948199   1      45  Si
    2.67644215   -1.43962357   -2.62525276   2      46  H
    1.87043273    0.53829735   -1.22166602   3      47  O
    1.39737204    1.26950154    0.27037253   1      48  Si
    2.23007367    2.51658695    0.43768621   2      49  H
    2.30417616   -2.16536512    0.61851348   1      50  Si
    1.87313337   -3.59638831    0.78751251   2      51  H
    1.21792843   -0.50406137    1.87256158   1      52  Si
   -0.27083398   -0.71900356    2.01118316   2      53  H
    1.78460515   -0.26784493    3.23675229   2      54  H
   -2.94487578   17.44318067    1.75588194   3      55  O
   -4.08215231   18.56613383    2.48650208   5      56  P
   -3.48047876   20.03835736    2.53980078   3      57  O
   -5.44369602   18.51854383    1.74567440   3      58  O
    2.76382203   17.08053979   -0.08779955   3      59  O
    4.01313314   -1.88866658    0.87289805   3      60  O
    4.52435223   -1.95757795    2.49339165   5      61  P
    5.88614762   -2.69544391    2.62349861   3      62  O
    3.30285649   -2.51463776    3.32181510   3      63  O
    4.72832577   -0.26968455    2.71251448   3      64  O
   -2.38159026   -2.96173015   -1.66117840   2      65  H
    3.03453843   17.44361002   -0.96811835   2      66  H
   -8.01549530   14.58085398    7.00653012   1      67  Si
   -7.76166290   13.30425544    7.78263556   2      68  H
   -8.47625639   15.64427151    7.95958106   2      69  H
   -5.86812527   15.28826940    6.25109692   1      70  Si
   -5.19946862   15.82994386    7.50136576   2      71  H
   -4.90833389   13.84602009    5.85643758   3      72  O
   -4.89097280   13.23056981    4.23378242   1      73  Si
   -3.47756558   13.12524398    3.76002896   2      74  H
   -6.07890526   16.66863659    4.30217986   1      75  Si
   -7.31548550   17.53039023    4.28587986   2      76  H
   -6.19914745   14.73962287    2.92341677   1      77  Si
   -7.58637654   14.20360477    2.71057410   2      78  H
   -5.61940307   15.10322859    1.57392980   2      79  H
    2.67334452    4.15094631    3.97273769   4      80  N
    2.06079400    2.47522310    4.08833116   1      81  Si
    3.12274011    1.43667666    4.02226036   2      82  H
    0.37067514    2.17341640    4.24991738   4      83  N
   -0.41862544    3.73162914    4.59570060   1      84  Si
   -2.28215790    4.88539250    3.75955342   1      85  Si
   -3.74854073    4.49615052    4.28535337   3      86  O
   -1.79634596    6.67125252    3.87562176   4      87  N
   -2.67780039    7.28194865    4.02313152   2      88  H
   -0.30454178    7.60882935    3.97610164   1      89  Si
   -0.47674182    9.28272565    4.25229260   4      90  N
   -1.42617339    9.88756710    4.28426414   2      91  H
    0.41518036    9.84982358    4.29532196   2      92  H
    1.30157772    6.94610974    3.90060066   4      93  N
    1.25475157    5.24686631    4.06115543   1      94  Si
   -5.46321002   11.42549603    4.33046186   4      95  N
   -7.18839879   10.96813768    4.29728286   1      96  Si
   -8.02790860   12.22621822    4.28519116   2      97  H
   -7.93284267    8.92870333    4.92349948   1      98  Si
   -9.18707758    8.63033429    4.11002624   2      99  H
   -6.05387053    7.74965441    4.28629534   1     100  Si
   -6.05740384    6.01890721    4.31992581   4     101  N
   -5.15852392    5.39394332    4.28356653   2     102  H
   -6.95869679    5.48415481    4.19776279   2     103  H
   -4.48469409    8.47848057    4.31830879   4     104  N
   -4.15827279   10.16043730    4.32586083   1     105  Si
   -2.67749682   10.78650287    4.28526998   3     106  O
    5.32805012    0.93621038    1.58929838   1     107  Si
    4.10618037    1.34815739    0.78539890   2     108  H
    6.42076161    0.36046238    0.70086686   2     109  H
    6.31785400    2.94475824    2.54157299   1     110  Si
    7.22698004    3.32696498    1.39876928   2     111  H
    5.26436062    4.40106873    2.71300765   3     112  O
    4.46557255    4.65087801    4.21400511   1     113  Si
    4.28200400    6.11524049    4.45965720   2     114  H
    7.29779644    2.61391369    4.70861629   1     115  Si
    7.93849606    1.25922309    4.89756150   2     116  H
    5.35327170    3.21597594    5.88351381   1     117  Si
    4.28159046    2.15627746    6.03497471   2     118  H
    5.53051738    3.95614569    7.17280468   2     119  H
   -9.27945591   14.29444192    5.77875054   3     120  O
  -10.90432148   14.46175361    6.43345090   5     121  P
  -11.32643800   15.99470997    6.30065346   3     122  O
  -11.86431717   13.48443875    5.68304726   3     123  O
   -4.63310220   17.53424126    3.93244106   3     124  O
    8.38533623    3.95640764    4.98548637   3     125  O
    8.81594346    4.26908543    6.62482532   5     126  P
   10.34384283    4.58466598    6.73366004   3     127  O
    8.20782761    3.05876555    7.43268614   3     128  O
    7.85154754    5.66296348    6.99475463   3     129  O
  -11.64705346    9.04910376   11.07152680   1     130  Si
  -10.70587056    8.18100148   11.89262660   2     131  H
  -12.66734723    9.70796701   11.98026594   2     132  H
  -10.26989467   10.91956452   10.31582833   1     133  Si
  -10.16951880   11.68599892   11.62999842   2     134  H
   -8.56924846   10.42900054    9.96719486   3     135  O
   -8.20025315   10.04069835    8.31606027   1     136  Si
   -7.04620769   10.87791954    7.87006131   2     137  H
  -11.24737526   12.00374551    8.36621146   1     138  Si
  -12.75549411   11.86637240    8.39582892   2     139  H
  -10.14942955   10.43481681    6.98177648   1     140  Si
  -10.97316679    9.16908435    6.90722972   2     141  H
   -9.81402105   10.96645199    5.59862050   2     142  H
    3.31318842    7.92285526    8.33945257   4     143  N
    3.78479003    6.25784558    8.92931643   1     144  Si
    5.17414421    5.84330038    8.57084045   2     145  H
    2.64049120    5.19227954    9.59979814   4     146  N
    1.05460295    6.03425377    9.74167472   1     147  Si
   -0.91730337    5.44945917    8.58700957   1     148  Si
   -1.69354356    4.04858115    8.39543082   3     149  O
   -1.77042400    7.01496018    8.27786296   4     150  N
   -2.85630287    6.92238258    8.30700610   2     151  H
   -1.16411781    8.68827252    8.19797802   1     152  Si
   -2.36556845    9.87174712    8.36525320   4     153  N
   -3.47945833    9.71063017    8.39548143   2     154  H
   -2.05217788   10.87843956    8.30766120   2     155  H
    0.47931091    9.19138095    7.96618856   4     156  N
    1.52293553    7.96525189    8.53112675   1     157  Si
   -7.49984782    8.27548703    8.41588177   4     158  N
   -8.53992903    6.83480563    8.42976377   1     159  Si
   -9.98990733    7.28131767    8.39549573   2     160  H
   -7.78932212    4.80066367    9.11158547   1     161  Si
   -8.47460495    3.77599505    8.22024367   2     162  H
   -5.57999323    5.11279882    8.46616012   1     163  Si
   -4.47108731    3.78242283    8.42114868   4     164  N
   -3.39099011    3.86701517    8.30856109   2     165  H
   -4.81830296    2.78688544    8.39520056   2     166  H
   -4.84206334    6.67954207    8.49385253   4     167  N
   -5.69428775    8.16860750    8.44854664   1     168  Si
   -4.99547742    9.61669968    8.39560966   3     169  O
    7.51240136    6.98086425    5.88695503   1     170  Si
    6.42182777    6.47313195    4.98267689   2     171  H
    8.74341343    7.28255804    5.07177053   2     172  H
    6.95639781    9.19959388    6.71592334   1     173  Si
    7.40525073    9.98016433    5.50854038   2     174  H
    5.26432947    9.79481448    6.91202479   3     175  O
    4.44212449    9.45771810    8.40546285   1     176  Si
    3.39064747   10.51668477    8.65554691   2     177  H
    8.00461570    9.59227853    8.81976926   1     178  Si
    9.27726208    8.80975773    9.00784529   2     179  H
    6.09205062    8.96052119   10.05430488   1     180  Si
    5.97670127    7.45978615   10.23229054   2     181  H
    5.79846862    9.61927670   11.36940357   2     182  H
  -12.48819569    8.00258234    9.88555153   3     183  O
  -13.86711762    7.08218442   10.26398245   5     184  P
  -15.15842269    7.99676911   10.06320322   3     185  O
  -13.91527204    5.75396909    9.44635336   3     186  O
  -10.79190067   13.66844099    8.04187227   3     187  O
    8.20501767   11.32656998    9.00943996   3     188  O
    8.24651354   11.77682293   10.66905036   5     189  P
    9.27342658   12.94397062   10.84453773   3     190  O
    8.64796966   10.43327463   11.45356899   3     191  O
    6.51724146   12.31426707   10.93114111   3     192  O
  -10.63404892    2.53708968   15.23428018   1     193  Si
   -9.27763790    2.51830166   15.91589239   2     194  H
  -11.68792448    2.24684382   16.26686980   2     195  H
  -10.98285927    4.76806299   14.44796070   1     196  Si
  -11.33104309    5.48445910   15.74054175   2     197  H
   -9.36814825    5.39328693   14.07644382   3     198  O
   -8.74879519    5.36525193   12.45402015   1     199  Si
   -8.38578125    6.74285384   11.98181417   2     200  H
  -12.36675280    4.88275082   12.44043325   1     201  Si
  -13.38190217    3.77396231   12.50581495   2     202  H
  -10.45304441    4.36695534   11.10753735   1     203  Si
  -10.25863255    2.87486698   11.01824041   2     204  H
  -10.61552858    4.94431481    9.70886970   2     205  H
    1.52292760   11.20885608   12.25801523   4     206  N
    3.06264125   10.31111816   12.41017470   1     207  Si
    4.28463078   11.14858563   12.33032872   2     208  H
    3.08132227    8.59523007   12.54685087   4     209  N
    1.40841634    8.06858950   12.86323814   1     210  Si
    0.02816033    6.40581298   11.93654894   1     211  Si
    0.08773059    4.94302285   12.59278492   3     212  O
   -1.67737554    7.17309963   11.92598872   4     213  N
   -2.40939699    6.38378057   12.06887202   2     214  H
   -2.35598429    8.79441266   12.10600364   1     215  Si
   -4.02517765    8.97192122   12.43663233   4     216  N
   -4.81594353    8.18145474   12.50538333   2     217  H
   -4.37077660    9.97428481   12.50496353   2     218  H
   -1.44048647   10.27535504   12.03930830   4     219  N
    0.21085847    9.98147470   12.33799265   1     220  Si
   -7.07718657    4.47863059   12.56109013   4     221  N
   -6.96913498    2.70171277   12.51961686   1     222  Si
   -8.38376872    2.15742699   12.59294803   2     223  H
   -5.05811246    1.59821595   13.05142270   1     224  Si
   -4.99572760    0.36115991   12.15660549   2     225  H
   -3.56986798    3.26501652   12.43040496   1     226  Si
   -1.86494199    2.97613786   12.52911648   4     227  N
   -1.08061729    3.75361094   12.51135869   2     228  H
   -1.51578000    1.97866551   12.50528601   2     229  H
   -4.00789179    4.93633265   12.40074211   4     230  N
   -5.60622777    5.54143557   12.52641651   1     231  Si
   -5.97546345    7.10124077   12.59298799   3     232  O
    5.32671183   13.16828454    9.95826135   1     233  Si
    4.72987084   12.13903978    9.00765341   2     234  H
    5.97729674   14.29362625    9.18243455   2     235  H
    3.38764849   14.49386754   10.84204251   1     236  Si
    3.21234236   15.37269401    9.61970752   2     237  H
    1.70002974   13.84364830   11.02080421   3     238  O
    1.30612345   13.06236797   12.50128635   1     239  Si
   -0.18005963   13.12531546   12.68118071   2     240  H
    3.80712588   15.49382127   12.97678670   1     241  Si
    5.26267385   15.82236186   13.20554720   2     242  H
    2.86796170   13.70619904   14.17273064   1     243  Si
    3.74885193   12.49315165   14.34249046   2     244  H
    2.22849081   14.02442837   15.48176791   2     245  H
  -10.61637143    1.25527283   13.99969977   3     246  O
  -10.99106875   -0.34295895   14.66275978   5     247  P
  -12.57064214   -0.53761381   14.52176352   3     248  O
  -10.16920265   -1.43722476   13.90511774   3     249  O
  -13.02796985    6.38668102   11.97626136   3     250  O
    2.67601285   16.81151443   13.21042441   3     251  O
    2.48562248   17.30026127   14.91700413   5     252  P
    2.40892396   18.87201852   15.04101552   3     253  O
    3.56375593   16.45442784   15.73761390   3     254  O
    0.89416308   16.63179435   15.30174428   3     255  O
   -5.81820628   -1.99552120   19.28177212   1     256  Si
   -4.72743396   -1.25882946   20.02685881   2     257  H
   -6.60232442   -2.87870998   20.20400678   2     258  H
   -7.42573504   -0.33547178   18.53632215   1     259  Si
   -8.11884524   -0.09028914   19.85371621   2     260  H
   -6.69091066    1.25486179   18.18760216   3     261  O
   -6.17308473    1.52872888   16.55154657   1     262  Si
   -6.76480242    2.81368009   16.06184118   2     263  H
   -8.62953017   -1.11591046   16.61597742   1     264  Si
   -8.74248133   -2.60929733   16.70326924   2     265  H
   -6.84639239   -0.35737096   15.25863365   1     266  Si
   -5.70973171   -1.34915809   15.12901327   2     267  H
   -7.31539512    0.08958427   13.90298130   2     268  H
   -2.08508157   12.59357765   16.47842393   4     269  N
   -0.31077752   12.86204517   16.53317671   1     270  Si
    0.09035575   14.29314322   16.35324007   2     271  H
    0.74271649   11.52654420   16.77895671   4     272  N
   -0.27314194   10.16978484   17.39626285   1     273  Si
   -0.41023349    7.96539051   16.70631125   1     274  Si
    0.80153225    6.92149597   16.70255428   3     275  O
   -2.13023921    7.38225199   16.65134637   4     276  N
   -2.22890622    6.29427710   16.61695290   2     277  H
   -3.66276317    8.28852447   16.60973868   1     278  Si
   -5.05332243    7.31139722   16.66073377   4     279  N
   -5.08583568    6.20369561   16.70258890   2     280  H
   -5.97796114    7.81947500   16.61602368   2     281  H
   -3.85773337   10.00443586   16.57397335   4     282  N
   -2.36111863   10.82926693   16.71881104   1     283  Si
   -4.30418732    1.88954943   16.68260420   4     284  N
   -3.06887780    0.62660790   16.75200882   1     285  Si
   -3.74686209   -0.71974837   16.70333931   2     286  H
   -0.94156928    0.99923459   17.48474286   1     287  Si
   -0.08904970    0.18002947   16.52776773   2     288  H
   -0.88902372    3.21779792   16.77832428   1     289  Si
    0.62080282    4.05566388   16.75782304   4     290  N
    0.71431163    5.12511720   16.61669612   2     291  H
    1.51794108    3.50673045   16.70324954   2     292  H
   -2.27154766    4.24548540   16.73507951   4     293  N
   -3.87746294    3.65159070   16.72211690   1     294  Si
   -5.17291297    4.58572761   16.70371301   3     295  O
   -0.42346672   16.50802084   14.14622284   1     296  Si
   -0.08944954   15.37256602   13.20464001   2     297  H
   -0.53576837   17.80067350   13.37944412   2     298  H
   -2.71091874   16.30452525   14.97024399   1     299  Si
   -3.47906985   16.90150730   13.81672819   2     300  H
   -3.56488932   14.74516495   15.21824954   3     301  O
   -3.41431889   13.90237673   16.70999688   1     302  Si
   -4.55162630   12.94506827   16.87890811   2     303  H
   -2.87601111   17.40750519   17.06217716   1     304  Si
   -1.87341478   18.51902020   17.22903344   2     305  H
   -2.61699015   15.44763750   18.34321449   1     306  Si
   -1.14793603   15.09426754   18.45741883   2     307  H
   -3.29890253   15.37135378   19.67736345   2     308  H
   -4.99572463   -3.05327679   18.10373177   3     309  O
   -4.38933099   -4.58718896   18.17858721   5     310  P
   -5.44615385   -5.66483574   18.19420907   3     311  O
   -3.02745064   -4.85143777   17.57677790   3     312  O
  -10.17386137   -0.35691269   16.34669648   3     313  O
   -4.55028153   17.88976534   17.23250925   3     314  O
   -5.00025547   18.07172752   18.91121168   5     315  P
   -6.06290474   19.23144645   19.06412349   3     316  O
   -3.66157014   18.24742949   19.76108252   3     317  O
    1.26122806   -2.23537514   23.46231491   1     318  Si
    1.33805034   -0.91137164   24.21759761   2     319  H
    1.33761009   -3.41586189   24.40000741   2     320  H
   -0.99776058   -2.15094725   22.64230505   1     321  Si
   -1.78592254   -2.51815583   23.87598425   2     322  H
   -1.42591526   -0.45145751   22.38442832   3     323  O
   -1.27912720    0.20814332   20.77853533   1     324  Si
   -2.58740041    0.80938678   20.37684468   2     325  H
   -1.53853606   -3.53069563   20.64050534   1     326  Si
   -0.53623394   -4.67431662   20.63920483   2     327  H
   -0.62048952   -1.62512285   19.39135917   1     328  Si
    0.89092521   -1.70882265   19.24009367   2     329  H
   -1.24949965   -1.70789309   18.01576877   2     330  H
   -5.11914988   11.20695818   20.73908074   4     331  N
   -3.90292714   12.45571300   21.26862162   1     332  Si
   -4.28196995   13.84563932   20.90191135   2     333  H
   -2.38141503   12.03106191   21.89976823   4     334  N
   -2.34154227   10.24099462   22.07073126   1     335  Si
   -0.88911883    8.76117870   20.97766529   1     336  Si
    0.71097811    8.80905954   20.81392141   3     337  O
   -1.80986110    7.21891714   20.71534315   4     338  N
   -1.17726688    6.32235266   20.71546125   2     339  H
   -3.56759781    6.92956560   20.67314753   1     340  Si
   -4.04913334    5.31284886   20.87951636   4     341  N
   -3.37581196    4.41818328   20.89235227   2     342  H
   -5.08557858    5.12360366   20.81382647   2     343  H
   -4.81359051    8.10759388   20.41547968   4     344  N
   -4.24690695    9.64476437   20.89749370   1     345  Si
   -0.05897729    1.66506182   20.87437437   4     346  N
    1.71374456    1.48187924   20.83359726   1     347  Si
    2.05135475    0.00155695   20.81417657   2     348  H
    3.12390959    3.16629780   21.43383648   1     349  Si
    4.28284704    3.05616799   20.46357962   2     350  H
    1.76525468    4.92472474   20.79173212   1     351  Si
    2.35573410    6.54946582   20.78547066   4     352  N
    1.72323939    7.43580518   20.72146235   2     353  H
    3.39033364    6.74258028   20.72618914   2     354  H
    0.04284236    4.79656506   20.85111052   4     355  N
   -0.81389266    3.31662113   20.86711477   1     356  Si
   -2.40839457    3.23670454   20.81416477   3     357  O
   -5.53199529   16.36662560   19.23812413   3     358  O
   -6.55558141   15.38903250   18.20093493   1     359  Si
   -5.63716032   14.73956395   17.19454610   2     360  H
   -7.55927650   16.25285261   17.46553129   2     361  H
   -8.11492740   13.68639946   19.06303242   1     362  Si
   -9.00988832   13.57534172   17.84129384   2     363  H
   -7.66968884   11.95989080   19.32900518   3     364  O
   -6.99957783   11.42351244   20.82444448   1     365  Si
   -7.40408141    9.97917081   20.98941038   2     366  H
   -9.01569468   14.33211398   21.17039962   1     367  Si
   -9.09929239   15.82280132   21.33933514   2     368  H
   -7.41048435   13.14964298   22.43230745   1     369  Si
   -6.06568367   13.84447621   22.56309804   2     370  H
   -7.84989244   12.67549556   23.78725814   2     371  H
    2.58981796   -2.33898804   22.30636822   3     372  O
    4.09070792   -2.99006396   23.01820192   5     373  P
    4.01275734   -4.57541453   23.09097603   3     374  O
    5.35203117   -2.42664181   22.29851692   3     375  O
   -3.12041541   -3.86411547   20.20252124   3     376  O
  -10.52591609   13.48546090   21.42472866   3     377  O
  -11.03800695   13.34877926   23.04129688   5     378  P
  -12.57528576   13.57337910   23.17497086   3     379  O
  -10.08174866   14.29072363   23.87363002   3     380  O
  -10.61651880   11.68706621   23.26293121   3     381  O
    6.41338578    2.09298588   27.55070852   1     382  Si
    5.70946276    3.23664346   28.24837446   2     383  H
    7.22569631    1.25870814   28.51040070   2     384  H
    4.64698089    0.70350494   26.76076208   1     385  Si
    4.28035807   -0.09066500   27.98699496   2     386  H
    3.21435050    1.70706168   26.40777156   3     387  O
    2.98175671    2.28806097   24.78407946   1     388  Si
    1.60671671    1.88835059   24.31220665   2     389  H
    5.30797300   -0.52617966   24.81743815   1     390  Si
    6.77802206   -0.89933336   24.83669176   2     391  H
    4.75486170    1.35073769   23.46262204   1     392  Si
    5.88769592    2.33694729   23.26199372   2     393  H
    4.28261353    0.80919252   22.12576291   2     394  H
   -7.21780062    8.26874411   24.51254260   4     395  N
   -7.21960173   10.05696254   24.62944913   1     396  Si
   -8.56447855   10.69805324   24.57401944   2     397  H
   -5.72927977   10.91321301   24.78325631   4     398  N
   -4.45138026    9.72244460   25.12021730   1     399  Si
   -2.29793229    9.28004082   24.29829173   1     400  Si
   -1.06823892   10.15802457   24.83696770   3     401  O
   -2.11940011    7.43964842   24.41765952   4     402  N
   -1.07135107    7.19089487   24.57437769   2     403  H
   -3.21720845    6.05806975   24.50861832   1     404  Si
   -2.50238252    4.53923465   24.79281618   4     405  N
   -1.41362118    4.31128376   24.82985406   2     406  H
   -3.12324432    3.68641563   24.83685225   2     407  H
   -4.95279049    6.12553595   24.42040000   4     408  N
   -5.50550619    7.73148523   24.58754905   1     409  Si
    2.91960760    4.18600083   24.87177165   4     410  N
    4.38991353    5.20298169   24.84263132   1     411  Si
    5.61863519    4.31521096   24.83691497   2     412  H
    4.37202984    7.37599505   25.47516099   1     413  Si
    5.44100433    8.09062467   24.66153907   2     414  H
    2.20894087    7.86490704   24.83012860   1     415  Si
    1.61542585    9.49126884   24.87070507   4     416  N
    0.55237900    9.78172629   24.83284145   2     417  H
    2.29664499   10.29010353   24.75272277   2     418  H
    0.98910754    6.64021185   24.84547121   4     419  N
    1.27077235    4.95080434   24.86631849   1     420  Si
    0.08948742    3.86675534   24.83677363   3     421  O
  -10.82310673   10.35032928   22.13458363   1     422  Si
   -9.61504624   10.34738346   21.22813629   2     423  H
  -12.04346573   10.51840783   21.25324807   2     424  H
  -11.03649849    8.12011118   23.08779452   1     425  Si
  -11.77585335    7.46018697   21.95008589   2     426  H
   -9.54790313    7.10555613   23.26467317   3     427  O
   -8.71317925    7.16181575   24.76825775   1     428  Si
   -8.02873422    5.84330739   25.01141053   2     429  H
  -12.07283088    8.09554510   25.24912920   1     430  Si
  -13.11305423    9.16946707   25.44893481   2     431  H
  -10.04715735    8.22221328   26.43239486   1     432  Si
   -9.45616979    9.61830311   26.58626514   2     433  H
   -9.99022347    7.46174597   27.72397959   2     434  H
    7.49626432    2.78758211   26.32922886   3     435  O
    9.08392071    3.21909916   26.96851907   5     436  P
    9.98555970    1.89540126   26.85220977   3     437  O
    9.63357407    4.49336870   26.23553347   3     438  O
    4.19011937   -1.80304532   24.48381108   3     439  O
  -12.66665794    6.47226890   25.53664663   3     440  O
  -12.94907689    6.03633009   27.17297637   5     441  P
  -14.27032036    5.21559021   27.28542902   3     442  O
  -12.75696871    7.36994328   27.98459392   3     443  O
  -11.59670250    5.03370499   27.54525494   3     444  O
    7.92972562    8.54274690   31.62206528   1     445  Si
    6.77926698    9.07968898   32.44478559   2     446  H
    9.10036826    8.27122939   32.53295904   2     447  H
    7.28586658    6.32461346   30.86580760   1     448  Si
    7.40512031    5.57398129   32.18232333   2     449  H
    5.53447354    6.20420500   30.51806829   3     450  O
    5.02083545    6.45959768   28.87666096   1     451  Si
    4.19276788    5.30263925   28.42188525   2     452  H
    8.54029520    5.66118283   28.90578439   1     453  Si
    9.90308118    6.29381899   28.94716255   2     454  H
    6.98084804    6.79766243   27.53967498   1     455  Si
    7.31530306    8.27106454   27.45961791   2     456  H
    6.86918036    6.20358863   26.14940907   2     457  H
   -6.54658321    4.51430919   28.85670424   4     458  N
   -7.55220808    5.91993889   29.46077401   1     459  Si
   -9.00914690    5.84354104   29.12247846   2     460  H
   -6.82741917    7.30607794   30.13066446   4     461  N
   -5.04833754    7.05354993   30.24810359   1     462  Si
   -3.38713590    8.29849306   29.12369681   1     463  Si
   -3.12262504    9.88458724   28.94702725   3     464  O
   -2.05670091    7.09465060   28.82493381   4     465  N
   -1.06748210    7.55196344   28.85805909   2     466  H
   -2.05871896    5.31265899   28.72982953   1     467  Si
   -0.54275173    4.56202635   28.91902357   4     468  N
    0.45734360    5.05361343   28.94724635   2     469  H
   -0.53476838    3.50619700   28.85920816   2     470  H
   -3.43500025    4.28442008   28.47935806   4     471  N
   -4.84212911    5.08900717   29.02142330   1     472  Si
    3.74402697    7.86464351   28.98330881   4     473  N
    4.20978594    9.57085544   28.98317932   1     474  Si
    5.71114685    9.62027990   28.94685785   2     475  H
    2.82791279   11.22680105   29.67855006   1     476  Si
    3.12240315   12.40650429   28.77136933   2     477  H
    0.86635527   10.18662695   29.00884610   1     478  Si
   -0.61978650   11.07524438   28.96707127   4     479  N
   -1.60352787   10.61000983   28.86006109   2     480  H
   -0.62403442   12.13396234   28.94667133   2     481  H
    0.70181744    8.46181891   29.00925958   4     482  N
    2.01285938    7.35155874   28.99719337   1     483  Si
    1.87155885    5.75477147   28.94720520   3     484  O
  -10.83220398    3.93438379   26.39490431   1     485  Si
   -9.99158103    4.76475337   25.44874209   2     486  H
  -11.90047907    3.21040527   25.61056243   2     487  H
   -9.54937857    2.04163622   27.22097031   1     488  Si
   -9.72311977    1.07924173   26.06155845   2     489  H
   -7.76352999    2.07101434   27.46249348   3     490  O
   -7.07712661    2.68087895   28.93303591   1     491  Si
   -5.71017042    2.06795114   29.12076777   2     492  H
  -10.39912182    1.35540102   29.32567206   1     493  Si
  -11.85442654    1.70152461   29.55871416   2     494  H
   -8.80463849    2.58264968   30.57439034   1     495  Si
   -9.18901133    4.04654977   30.69701446   2     496  H
   -8.38487092    2.06801419   31.92073230   2     497  H
    8.38565893    9.79735705   30.43591194   3     498  O
    9.32510924   11.16298145   30.77454165   5     499  P