SystemLabel      AT

NumberOfAtoms    30

NumberOfSpecies  4
%block ChemicalSpeciesLabel
    1    1  H
    2    7  N
    3   14  Si
    4    8  O
%endblock ChemicalSpeciesLabel

# Single point calculation
MD.TypeOfRun                CG
MD.Steps                    0
SCF.MustConverge            F # In case it does not. There can be 2 very close atoms

AtomicCoordinatesFormat NotScaledCartesianAng
%block AtomicCoordinatesAndAtomicSpecies
2.582377650    -5.776830440   0.000000000       1
1.654759240    -5.269361980   0.000000000       2
0.063128840    -6.101704590   0.000000000       3
0.119223240    -7.596849500   0.000000000       1
-1.376892050   -5.182603740   0.000000000       2
-0.824371900   -3.460866440   0.000000000       3
-1.170571480   -1.270002100   0.000000000       3
-2.706933680   -0.417515780   0.000000000       2
-2.754569660   0.634858620    0.000000000       1
-3.637675640   -0.909967860   0.000000000       1
0.218091790    -0.234193970   0.000000000       2
1.872004100    -0.697162300   0.000000000       3
2.828001130    0.461464770    0.000000000       1
2.648150080    -2.255024470   0.000000000       2
1.391921380    -3.454727220   0.000000000       3
1.910035206    4.119473043    0.000000000       2
0.582663686    5.329677343    0.000000000       3
1.222664956    6.690995583    0.000000000       1
-1.503082254   4.659145993    0.000000000       3
-3.532644854   5.789262183    0.000000000       3
-3.378409084   6.949492393    0.940305280       1
-4.518579574   4.767341563    0.512613700       1
-3.948859814   6.265488033    -1.366678340      1
-1.436586834   2.385169373    0.000000000       3
-2.475635564   1.192109873    0.000000000       4
0.220404746    1.751194183    0.000000000       2
0.202387376    0.688749353    0.000000000       1
1.844007816    2.348264393    0.000000000       3
3.039023986    1.333839193    0.000000000       4
2.910072576    4.464980143    0.000000000       1
%endblock AtomicCoordinatesAndAtomicSpecies

%include ../../../Defaults.fdf
