SystemLabel      AT

NumberOfAtoms    30

NumberOfSpecies  4
%block ChemicalSpeciesLabel
    1    1  H
    2    7  N
    3   14  Si
    4    8  O
%endblock ChemicalSpeciesLabel

# Single point calculation
MD.TypeOfRun                CG
MD.Steps                    0
SCF.MustConverge            F # In case it does not. There can be 2 very close atoms

AtomicCoordinatesFormat NotScaledCartesianAng
%block AtomicCoordinatesAndAtomicSpecies
2.582377650    -5.776830440   0.000000000       1
1.654759240    -5.269361980   0.000000000       2
0.063128840    -6.101704590   0.000000000       3
0.119223240    -7.596849500   0.000000000       1
-1.376892050   -5.182603740   0.000000000       2
-0.824371900   -3.460866440   0.000000000       3
-1.170571480   -1.270002100   0.000000000       3
-2.706933680   -0.417515780   0.000000000       2
-2.754569660   0.634858620    0.000000000       1
-3.637675640   -0.909967860   0.000000000       1
0.218091790    -0.234193970   0.000000000       2
1.872004100    -0.697162300   0.000000000       3
2.828001130    0.461464770    0.000000000       1
2.648150080    -2.255024470   0.000000000       2
1.391921380    -3.454727220   0.000000000       3
1.850053070    7.644603790    0.000000000       2
0.522681550    8.854808090    0.000000000       3
1.162682820    10.216126330   0.000000000       1
-1.563064390   8.184276740    0.000000000       3
-3.592626990   9.314392930    0.000000000       3
-3.438391220   10.474623140   0.940305280       1
-4.578561710   8.292472310    0.512613700       1
-4.008841950   9.790618780    -1.366678340      1
-1.496568970   5.910300120    0.000000000       3
-2.535617700   4.717240620    0.000000000       4
0.160422610    5.276324930    0.000000000       2
0.142405240    4.213880100    0.000000000       1
1.784025680    5.873395140    0.000000000       3
2.979041850    4.858969940    0.000000000       4
2.850090440    7.990110890    0.000000000       1
%endblock AtomicCoordinatesAndAtomicSpecies

%include ../../../Defaults.fdf
