SystemLabel      desoxy1-3

NumberOfAtoms    56

NumberOfSpecies  4
%block ChemicalSpeciesLabel
    1    8  O
    2   14  Si
    3    1  H
    4   15  P
%endblock ChemicalSpeciesLabel

############################################
# This overrides Defaults.fdf configuration
############################################
MD.TypeOfRun                Verlet # CG, Verlet
MD.Steps                    600
MD.Quench                   True
MD.InitialTemperature       1 K
SCF.H.Tolerance             0.00006 eV
SCF.DM.Tolerance            0.00008
MaxSCFIterations            300

AtomicCoordinatesFormat NotScaledCartesianAng
%block AtomicCoordinatesAndAtomicSpecies
   -5.90856572   17.91827385    1.82120302   1       1  O
   -4.87240161   17.34900173    3.15653033   2       2  Si
   -5.72667318   16.42939887    3.98696974   3       3  H
   -4.38566732   18.52801496    3.98419788   3       4  H
   -2.81906990   16.30333362    2.48625811   2       5  Si
   -1.96835224   16.43138082    3.72664902   3       6  H
   -2.77560724   14.59849669    2.07769094   1       7  O
   -3.20269721   14.03785990    0.46227149   2       8  Si
   -2.14791671   13.02266215    0.08629511   3       9  H
   -4.56305323   13.37203546    0.52033736   3      10  H
   -2.09247310   17.45733148    0.55712091   2      11  Si
   -2.59553564   18.87974055    0.51958716   3      12  H
   -3.24224272   15.98624716   -0.89944615   2      13  Si
   -4.65323660   16.51810718   -1.04019708   3      14  H
   -2.59477157   15.81899174   -2.25347965   3      15  H
   -0.35898908   17.39279630    0.43184880   1      16  O
    0.00584120   17.66509728   -0.44890927   3      17  H
   -7.42787939   18.70232232    3.81508223   1      18  O
   -7.11724985   19.10413484    2.19521609   4      19  P
   -6.26815817   20.44768303    2.07901977   1      20  O
   -8.58203996   18.96587145    1.55924170   1      21  O
  -12.61738181   16.42941045    4.85118198   1      22  O
  -12.02939367   17.15438409    6.42705625   2      23  Si
  -12.25856929   16.08011677    7.45224108   3      24  H
  -12.78297368   18.41903723    6.75470531   3      25  H
   -9.66021290   17.37496470    6.39827738   2      26  Si
   -9.21698142   18.26777777    7.53762851   3      27  H
   -9.30384181   15.73286466    6.92638441   1      28  O
   -8.71733762   14.58125562    5.72112761   2      29  Si
   -7.24768932   14.33336083    5.97846947   3      30  H
   -9.48487348   13.28574326    5.89186986   3      31  H
   -8.99476884   17.90662420    4.10211775   2      32  Si
  -10.11308309   18.79098424    3.63898215   3      33  H
   -9.03197232   15.58008643    3.58122968   2      34  Si
  -10.38190371   15.20777862    3.03148972   3      35  H
   -7.96096348   15.20667100    2.59733970   3      36  H
  -14.67927750   16.51665330    6.15720254   1      37  O
  -14.34062234   16.96081038    4.60777955   4      38  P
  -13.51325590   18.27205686    4.24457698   1      39  O
  -15.65417266   16.77787772    3.81047387   1      40  O
  -18.52201717   12.14959248    6.58651226   1      41  O
  -18.13045885   12.75903036    8.18306911   2      42  Si
  -18.25273232   11.62449798    9.18399704   3      43  H
  -19.14942465   13.81035442    8.57748801   3      44  H
  -16.03763778   13.97360904    8.43734659   2      45  Si
  -16.28543183   14.77036621    9.70322418   3      46  H
  -14.58798747   13.02408889    8.74713287   1      47  O
  -13.70514199   12.33214133    7.39131399   2      48  Si
  -12.25733279   12.67365970    7.62342686   3      49  H
  -13.86966599   10.83612125    7.45084702   3      50  H
  -15.81391170   15.08246941    6.33029877   2      51  Si
  -17.17858501   15.46971937    5.80480105   3      52  H
  -14.64311899   13.24425685    5.39862787   2      53  Si
  -13.60018220   13.72152791    4.41769149   3      54  H
  -15.57007237   12.23587089    4.76452296   3      55  H
  -19.44400299   11.79121299    6.51255947   3      56  H
%endblock AtomicCoordinatesAndAtomicSpecies

#############
# Unit Cell
#############
LatticeConstant 1.0 Ang
%block LatticeVectors
    28.991692    0.000000    0.000000
    0.000000   17.480056    0.000000
    0.000000    0.000000   20.793004
%endblock LatticeVectors

%include ../../Defaults.fdf


