SystemLabel      desoxy1-3

NumberOfAtoms    56

NumberOfSpecies  4
%block ChemicalSpeciesLabel
    1    8  O
    2   14  Si
    3    1  H
    4   15  P
%endblock ChemicalSpeciesLabel

AtomicCoordinatesFormat NotScaledCartesianAng
%block AtomicCoordinatesAndAtomicSpecies
    -5.910106160    17.896264940     1.823521580    1
    -4.871377160    17.353316940     3.154364580    2
    -5.640820160    16.393673940     4.036592580    3
    -4.401353160    18.559077940     3.950568580    3
    -2.820644160    16.277610940     2.499772580    2
    -2.011525160    16.393214940     3.780179580    3
    -2.809077160    14.565389940     2.077112580    1
    -3.235351160    14.062288940     0.446344580    2
    -2.188047160    13.059314940     0.034048580    3
    -4.579678160    13.392054940     0.544807580    3
    -2.070101160    17.455100940     0.580793580    2
    -2.543123160    18.893781940     0.545913580    3
    -3.257558160    16.021803940    -0.901429420    2
    -4.665950160    16.559893940    -1.071898420    3
    -2.630381160    15.810191940    -2.263956420    3
    -0.330878160    17.393425940     0.457837580    1
     0.019791840    17.562290940    -0.459396420    3
    -7.412666160    18.724545940     3.786585580    1
    -7.124031160    19.133448940     2.159139580    4
    -6.265353160    20.470673940     2.076560580    1
    -8.636639160    18.976860940     1.568231580    1
   -12.720780160    16.395626940     4.888163580    1
   -12.108193160    17.261270940     6.274219580    2
   -12.455077160    16.477548940     7.527146580    3
   -12.720056160    18.644414940     6.335051580    3
    -9.708882160    17.352410940     6.390623580    2
    -9.356972160    18.309209940     7.525650580    3
    -9.267907160    15.731405940     6.926549580    1
    -8.698200160    14.589112940     5.713994580    2
    -7.231034160    14.392391940     5.993525580    3
    -9.445774160    13.309239940     5.992777580    3
    -8.982933160    17.928389940     4.054916580    2
   -10.153343160    18.810162940     3.695673580    3
    -9.044933160    15.578993940     3.559480580    2
   -10.417779160    15.227518940     3.014656580    3
    -7.941155160    15.226371940     2.588487580    3
   -14.632545210    16.556754760     6.004760650    1
   -14.343910210    16.965657760     4.377314650    4
   -13.485232210    18.302882760     4.294735650    1
   -15.856518210    16.809069760     3.786406650    1
   -18.523683060    12.153659010     6.552347470    1
   -18.195034930    12.769579620     8.182539410    2
   -18.236991670    11.625518400     9.172815650    3
   -19.225056860    13.828556600     8.537990560    3
   -16.095350800    13.912656110     8.457934870    2
   -16.352480640    14.685645730     9.740062480    3
   -14.613686670    12.997778310     8.737480960    1
   -13.723318670    12.333442070     7.373616370    2
   -12.274967910    12.672977550     7.618128580    3
   -13.917987950    10.841552830     7.423556860    3
   -15.769284230    15.134837840     6.449893460    2
   -17.068255080    15.503748740     5.763344900    3
   -14.615327510    13.333314660     5.408606960    2
   -13.548769690    13.720552610     4.405057440    3
   -15.632650280    12.427583000     4.740121290    3
   -19.437580180    11.786257000     6.583459300    3
%endblock AtomicCoordinatesAndAtomicSpecies

%include ../defaults.fdf


