# mpirun -np 6 siesta-4.1.5 < CG.fdf > GC.out &

SystemLabel      GC

NumberOfAtoms    29

NumberOfSpecies  4
%block ChemicalSpeciesLabel
    1    8  O
    2    7  N
    3   14  Si
    4    1  H
%endblock ChemicalSpeciesLabel

###################################
# This overrides Defaults.fdf conf
###################################
MD.TypeOfRun                CG # CG, Verlet

AtomicCoordinatesFormat NotScaledCartesianAng
%block AtomicCoordinatesAndAtomicSpecies
     0.854927710     3.902811360     0.000000000    1
    -3.151486600     0.823854130     0.000000000    2
     1.928518680     1.174000900     0.000000000    2
     0.979899500    -1.830275890     0.000000000    2
    -2.159258930    -2.028004800     0.000000000    2
     3.785319770    -1.112700660     0.000000000    2
    -1.345933810     0.976250250     0.000000000    3
    -0.599439880    -1.096077170     0.000000000    3
     0.453182890     2.350510230     0.000000000    3
     2.133302030    -0.576510800     0.000000000    3
    -3.516065660    -0.842056510     0.000000000    3
     2.824527830     1.754723110     0.000000000    4
    -4.877551690    -1.469214660     0.000000000    4
     3.994952020    -2.143204000     0.000000000    4
     4.620903610    -0.483666060     0.000000000    4
    -2.279085180    -3.081514090     0.000000000    4
     4.632630209     4.881497899     0.000000000    3
     6.501589699     6.141141529     0.000000000    3
     6.042657319     2.139759679     0.000000000    3
     8.110250039     4.646350899     0.000000000    3
     4.692160159     3.196545439     0.000000000    2
     3.002631009     5.511558129     0.000000000    2
     7.686546189     2.930850089     0.000000000    2
     6.781953399     7.611364049     0.000000000    4
     9.605661419     4.865203439     0.000000000    4
     2.758172019     6.530024079     0.000000000    4
     2.175889829     4.854709999     0.000000000    4
     6.101933079     0.557317649     0.000000000    1
     8.458201779     2.203882729     0.000000000    4
%endblock AtomicCoordinatesAndAtomicSpecies

%block Geometry.Constraints
    atom all 0.0 0.0 1.0 # constrain along z Cartesian vector
%endblock

%include ../../Defaults.fdf