SystemLabel      GC

NumberOfAtoms    29

NumberOfSpecies  4
%block ChemicalSpeciesLabel
    1    8  O
    2    7  N
    3   14  Si
    4    1  H
%endblock ChemicalSpeciesLabel

# Single point calculation
MD.TypeOfRun                CG
MD.Steps                    0
SCF.MustConverge            F # In case it does not. There can be 2 very close atoms

AtomicCoordinatesFormat NotScaledCartesianAng
%block AtomicCoordinatesAndAtomicSpecies
0.958671510    3.803529300    0.000000000       1
-3.038688210   0.998073330    0.000000000       2
2.066567750    1.099065770    0.000000000       2
1.029569860    -1.834680850   0.000000000       2
-2.108567660   -1.881798240   0.000000000       2
3.912411070    -1.180894430   0.000000000       2
-1.235636790   1.044983000    0.000000000       3
-0.501909240   -1.031832280   0.000000000       3
0.629463280    2.232755840    0.000000000       3
2.280054370    -0.658293540   0.000000000       3
-3.424812990   -0.662324160   0.000000000       3
2.965974160    1.682263990    0.000000000       4
-4.796229390   -1.238728480   0.000000000       4
4.096559410    -2.214148760   0.000000000       4
4.792108680    -0.529147250   0.000000000       4
-2.266861300   -2.922393730   0.000000000       4
4.520513195    4.827288788    0.000000000       3
6.445990945    6.018918118    0.000000000       3
5.981184555    2.092734418    0.000000000       3
8.052364475    4.539781008    0.000000000       3
4.622797735    3.117934098    0.000000000       2
2.941135105    5.497518278    0.000000000       2
7.634254455    2.807898098    0.000000000       2
6.754481765    7.483579478    0.000000000       4
9.544037385    4.739760468    0.000000000       4
2.756508665    6.532392008    0.000000000       4
2.049043315    4.826229548    0.000000000       4
5.971053955    0.494505898    0.000000000       1
8.410852835    2.086067898    0.000000000       4
%endblock AtomicCoordinatesAndAtomicSpecies

%include ../../../Defaults.fdf
