SystemLabel      GC

NumberOfAtoms    29

NumberOfSpecies  4
%block ChemicalSpeciesLabel
    1    8  O
    2    7  N
    3   14  Si
    4    1  H
%endblock ChemicalSpeciesLabel

# Single point calculation
MD.TypeOfRun                CG
MD.Steps                    0
SCF.MustConverge            F # In case it does not. There can be 2 very close atoms

AtomicCoordinatesFormat NotScaledCartesianAng
%block AtomicCoordinatesAndAtomicSpecies
0.854927710    3.902811360    0.000000000       1
-3.151486600   0.823854130    0.000000000       2
1.928518680    1.174000900    0.000000000       2
0.979899500    -1.830275890   0.000000000       2
-2.159258930   -2.028004800   0.000000000       2
3.785319770    -1.112700660   0.000000000       2
-1.345933810   0.976250250    0.000000000       3
-0.599439880   -1.096077170   0.000000000       3
0.453182890    2.350510230    0.000000000       3
2.133302030    -0.576510800   0.000000000       3
-3.516065660   -0.842056510   0.000000000       3
2.824527830    1.754723110    0.000000000       4
-4.877551690   -1.469214660   0.000000000       4
3.994952020    -2.143204000   0.000000000       4
4.620903610    -0.483666060   0.000000000       4
-2.279085180   -3.081514090   0.000000000       4
7.264153172    6.777799911    -0.000000000      3
9.133112662    8.037443541    -0.000000000      3
8.674180282    4.036061691    -0.000000000      3
10.741773002   6.542652911    -0.000000000      3
7.323683122    5.092847451    -0.000000000      2
5.634153972    7.407860141    -0.000000000      2
10.318069152   4.827152101    -0.000000000      2
9.413476362    9.507666061    -0.000000000      4
12.237184382   6.761505451    -0.000000000      4
5.389694982    8.426326091    -0.000000000      4
4.807412792    6.751012011    -0.000000000      4
8.733456042    2.453619661    -0.000000000      1
11.089724742   4.100184741    -0.000000000      4
%endblock AtomicCoordinatesAndAtomicSpecies

%include ../../../Defaults.fdf
