# mpirun -np 4 siesta-4.1.5 < AT.fdf > AT.out &

SystemLabel      AT

NumberOfAtoms    30

NumberOfSpecies  4
%block ChemicalSpeciesLabel
    1    1  H
    2    7  N
    3   14  Si
    4    8  O
%endblock ChemicalSpeciesLabel

############################################
# This overrides Defaults.fdf configuration
############################################
MD.TypeOfRun                Verlet # CG, Verlet
MD.Steps                    600
MD.Quench                   True

AtomicCoordinatesFormat NotScaledCartesianAng
%block AtomicCoordinatesAndAtomicSpecies
     2.285450840    -5.196085260     0.000000000    1
     1.371236690    -4.673769370     0.000000000    2
    -0.222175040    -5.496956140     0.000000000    3
    -0.175152260    -6.985690800     0.000000000    1
    -1.660843550    -4.581468750     0.000000000    2
    -1.084527250    -2.871873010     0.000000000    3
    -1.514019280    -0.705081450     0.000000000    3
    -3.188910430    -0.100237310     0.000000000    2
    -3.722848020     0.877496670     0.000000000    1
    -4.051409420    -0.697652610     0.000000000    1
    -0.119236770     0.364542830     0.000000000    2
     1.556356520    -0.086479190     0.000000000    3
     2.958411070     0.707142990     0.000000000    1
     2.346389150    -1.632224810     0.000000000    2
     1.117140920    -2.858907990     0.000000000    3
     0.570488400     7.220298880     0.000000000    1
    -0.229924560     6.520241060     0.000000000    2
    -1.878476180     7.228324450     0.000000000    3
    -1.743174880     8.719367730     0.000000000    1
    -3.619828000     5.923318460     0.000000000    3
    -5.945277770     5.879900230     0.000000000    3
    -6.535309160     6.575489890    -1.202861160    1
    -6.151826620     4.392779350    -0.086203260    1
    -6.506609370     6.408675780     1.290120120    1
    -2.724566550     3.847925040     0.000000000    3
    -3.591675220     2.512753930     0.000000000    4
    -0.967261370     3.662749820     0.000000000    2
    -0.763559860     2.494176740     0.000000000    1
     0.339490970     4.819312980     0.000000000    3
     1.866810160     4.424987790     0.000000000    4
%endblock AtomicCoordinatesAndAtomicSpecies

#############
# Unit Cell
#############
LatticeConstant 1.0 Ang
%block LatticeVectors
    16.855075   0.000000    0.000000
    0.000000    24.528070   0.000000
    0.000000    0.000000    10.315061
%endblock LatticeVectors

%block Geometry.Constraints
    atom all 0.0 0.0 1.0 # constrain along z Cartesian vector
    clear-prev [22 -- 24]
%endblock

%include ../../../../Defaults.fdf