# Created by GDIS version 0.90.0
#

SystemLabel      A

NumberOfAtoms    15

NumberOfSpecies  3
%block ChemicalSpeciesLabel
    1    1  H
    2    7  N
    3   14  Si
%endblock ChemicalSpeciesLabel

AtomicCoordinatesFormat NotScaledCartesianAng
%block AtomicCoordinatesAndAtomicSpecies
    2.43476211   -5.17727921    0.00000000   1       1  H
    1.52474575   -4.64294512    0.00000000   2       2  N
   -0.06979839   -5.46511473    0.00000000   3       3  Si
   -0.00048312   -6.96015266   -0.00000000   1       4  H
   -1.50281012   -4.53551189    0.00000000   2       5  N
   -0.93071915   -2.82059948   -0.00000000   3       6  Si
   -1.25779537   -0.62921699    0.00000000   3       7  Si
   -2.79768344    0.20735355    0.00000000   2       8  N
   -2.88591322    1.25753878   -0.00000000   1       9  H
   -3.69661297   -0.33735086    0.00000000   1      10  H
    0.12473194    0.40891504   -0.00000000   2      11  N
    1.77312138   -0.06925974   -0.00000000   3      12  Si
    2.70453846    1.10287944    0.00000000   1      13  H
    2.54653114   -1.62884688   -0.00000000   2      14  N
    1.28460843   -2.82548850    0.00000000   3      15  Si
%endblock AtomicCoordinatesAndAtomicSpecies

%include ../defaults.fdf




