# mpirun -np 8 siesta-4.1.5 < AT.fdf > AT.out &

SystemLabel      AT

NumberOfAtoms    30

NumberOfSpecies  4
%block ChemicalSpeciesLabel
    1    1  H
    2    7  N
    3   14  Si
    4    8  O
%endblock ChemicalSpeciesLabel

############################################
# This overrides Defaults.fdf configuration
############################################
MD.TypeOfRun                CG
MD.Steps                    0

AtomicCoordinatesFormat NotScaledCartesianAng
%block AtomicCoordinatesAndAtomicSpecies
    2.33446403   -5.03987690    0.00000000   1       1  H
    1.40093848   -4.54705127    0.00000000   2       2  N
   -0.16737970   -5.42878014    0.00000000   3       3  Si
   -0.08293198   -6.92856615    0.00000000   1       4  H
   -1.62723651   -4.54210561    0.00000000   2       5  N
   -1.11507769   -2.80731806    0.00000000   3       6  Si
   -1.58274110   -0.63298350    0.00000000   3       7  Si
   -3.18316421    0.03065193    0.00000000   2       8  N
   -3.41658416    1.08110974    0.00000000   1       9  H
   -4.00135251   -0.62983173    0.00000000   1      10  H
   -0.24701545    0.49978380    0.00000000   2      11  N
    1.42807002    0.06551497    0.00000000   3      12  Si
    2.33328003    1.25991527    0.00000000   1      13  H
    2.26633283   -1.45766373    0.00000000   2      14  N
    1.08620215   -2.73568137    0.00000000   3      15  Si
    0.58296908    7.46946437    0.00000000   1      16  H
   -0.22154991    6.77444754    0.00000000   2      17  N
   -1.86976433    7.49276379    0.00000000   3      18  Si
   -1.75011761    8.99882696    0.00000000   1      19  H
   -3.59413069    6.15224992    0.00000000   3      20  Si
   -5.93546605    6.15896331    0.00000000   3      21  Si
   -6.49944107    6.92973183   -1.16766896   1      22  H
   -6.24994628    4.68124807   -0.08372545   1      23  H
   -6.49856679    6.75296610    1.26081298   1      24  H
   -2.69819387    4.07020412    0.00000000   3      25  Si
   -3.66475756    2.79124975    0.00000000   4      26  O
   -0.89953505    3.90827468    0.00000000   2      27  N
   -0.58231036    2.87884539    0.00000000   1      28  H
    0.42388833    5.09725337    0.00000000   3      29  Si
    1.99669128    4.85999736    0.00000000   4      30  O
%endblock AtomicCoordinatesAndAtomicSpecies

#############
# Unit Cell
#############
LatticeConstant 1.0 Ang
%block LatticeVectors
    30.00000    0.000000    0.000000
    0.000000    45.00000    0.000000
    0.000000    0.000000    15.00000
%endblock LatticeVectors


%include ../../../Defaults.fdf
