# mpirun -np 4 siesta-4.1.5 < GC.fdf > GC.out &

SystemLabel      GC

NumberOfAtoms    29

NumberOfSpecies  4
%block ChemicalSpeciesLabel
    1    1  H
    2    7  N
    3   14  Si
    4    8  O
%endblock ChemicalSpeciesLabel

############################################
# This overrides Defaults.fdf configuration
############################################
MD.TypeOfRun                CG # CG, Verlet
MD.Steps                    0
MaxSCFIterations            600

AtomicCoordinatesFormat NotScaledCartesianAng
%block AtomicCoordinatesAndAtomicSpecies
    0.8496393698155136 3.872473208805034 0.0  1  1  H
    0.14315263981551357 3.082437028805034 0.0  2  2  N
    -1.5871342701844864 3.5238009388050338 0.0  3  3  Si
    -1.7429139501844864 5.0137931988050335 0.0  1  4  H
    -3.1104558901844865 1.9648934188050338 0.0  3  5  Si
    -4.593643520184487 2.207723778805034 0.0  1  6  H
    -1.9120650301844864 0.05161725880503376 0.0  3  7  Si
    -2.6780904901844864 -1.4810994811949663 0.0  2  8  N
    -2.0878439401844866 -2.438312511194966 0.0  1  9  H
    -3.7297128101844863 -1.5615597111949662 0.0  1  10  H
    -0.19586497018448643 0.10679156880503374 0.0  2  11  N
    0.8791576498155136 1.4371304088050338 0.0  3  12  Si
    2.4878309698155134 1.4183201488050339 0.0  4  13  O
    5.6164483 -7.44953905 0.0  1  14  H
    4.58206954 -7.2320376 0.0  2  15  N
    3.29666389 -8.492636 0.0  3  16  Si
    3.80117524 -9.90371886 -0.0  1  17  H
    1.65934232 -8.01362137 0.0  2  18  N
    1.68097912 -6.20463398 -0.0  3  19  Si
    0.54543521 -4.28636135 0.0  3  20  Si
    -1.03431493 -3.94450034 0.0  4  21  O
    1.73226934 -2.87719605 0.0  2  22  N
    1.20957366 -1.92961761 -0.0  1  23  H
    3.50853448 -2.77677601 0.0  3  24  Si
    4.13684451 -1.17938608 0.0  2  25  N
    3.54296161 -0.26248101 0.0  1  26  H
    5.18364407 -1.05231197 -0.0  1  27  H
    4.63288658 -4.07521596 -0.0  2  28  N
    3.79410501 -5.58634043 0.0  3  29  Si
%endblock AtomicCoordinatesAndAtomicSpecies

%include ../../../../Defaults.fdf