SystemLabel      AT

NumberOfAtoms    30

NumberOfSpecies  4
%block ChemicalSpeciesLabel
    1    1  H
    2    7  N
    3   14  Si
    4    8  O
%endblock ChemicalSpeciesLabel

# Single point calculation
MD.TypeOfRun                CG
MD.Steps                    0
SCF.MustConverge            F # In case it does not. There can be 2 very close atoms

AtomicCoordinatesFormat NotScaledCartesianAng
%block AtomicCoordinatesAndAtomicSpecies
2.582377650    -5.776830440   0.000000000       1
1.654759240    -5.269361980   0.000000000       2
0.063128840    -6.101704590   0.000000000       3
0.119223240    -7.596849500   0.000000000       1
-1.376892050   -5.182603740   0.000000000       2
-0.824371900   -3.460866440   0.000000000       3
-1.170571480   -1.270002100   0.000000000       3
-2.706933680   -0.417515780   0.000000000       2
-2.754569660   0.634858620    0.000000000       1
-3.637675640   -0.909967860   0.000000000       1
0.218091790    -0.234193970   0.000000000       2
1.872004100    -0.697162300   0.000000000       3
2.828001130    0.461464770    0.000000000       1
2.648150080    -2.255024470   0.000000000       2
1.391921380    -3.454727220   0.000000000       3
1.840455928    8.208624710    0.000000000       2
0.513084408    9.418829010    0.000000000       3
1.153085678    10.780147250   0.000000000       1
-1.572661532   8.748297660    0.000000000       3
-3.602224132   9.878413850    0.000000000       3
-3.447988362   11.038644060   0.940305280       1
-4.588158852   8.856493230    0.512613700       1
-4.018439092   10.354639700   -1.366678340      1
-1.506166112   6.474321040    0.000000000       3
-2.545214842   5.281261540    0.000000000       4
0.150825468    5.840345850    0.000000000       2
0.132808098    4.777901020    0.000000000       1
1.774428538    6.437416060    0.000000000       3
2.969444708    5.422990860    0.000000000       4
2.840493298    8.554131810    0.000000000       1
%endblock AtomicCoordinatesAndAtomicSpecies

%include ../../../Defaults.fdf
