SystemLabel      AT

NumberOfAtoms    30

NumberOfSpecies  4
%block ChemicalSpeciesLabel
    1    1  H
    2    7  N
    3   14  Si
    4    8  O
%endblock ChemicalSpeciesLabel

# Single point calculation
MD.TypeOfRun                CG
MD.Steps                    0
SCF.MustConverge            F # In case it does not. There can be 2 very close atoms

AtomicCoordinatesFormat NotScaledCartesianAng
%block AtomicCoordinatesAndAtomicSpecies
2.582377650    -5.776830440   0.000000000       1
1.654759240    -5.269361980   0.000000000       2
0.063128840    -6.101704590   0.000000000       3
0.119223240    -7.596849500   0.000000000       1
-1.376892050   -5.182603740   0.000000000       2
-0.824371900   -3.460866440   0.000000000       3
-1.170571480   -1.270002100   0.000000000       3
-2.706933680   -0.417515780   0.000000000       2
-2.754569660   0.634858620    0.000000000       1
-3.637675640   -0.909967860   0.000000000       1
0.218091790    -0.234193970   0.000000000       2
1.872004100    -0.697162300   0.000000000       3
2.828001130    0.461464770    0.000000000       1
2.648150080    -2.255024470   0.000000000       2
1.391921380    -3.454727220   0.000000000       3
1.857250926    7.221588100    0.000000000       2
0.529879406    8.431792400    0.000000000       3
1.169880676    9.793110640    0.000000000       1
-1.555866534   7.761261050    0.000000000       3
-3.585429134   8.891377240    0.000000000       3
-3.431193364   10.051607450   0.940305280       1
-4.571363854   7.869456620    0.512613700       1
-4.001644094   9.367603090    -1.366678340      1
-1.489371114   5.487284430    0.000000000       3
-2.528419844   4.294224930    0.000000000       4
0.167620466    4.853309240    0.000000000       2
0.149603096    3.790864410    0.000000000       1
1.791223536    5.450379450    0.000000000       3
2.986239706    4.435954250    0.000000000       4
2.857288296    7.567095200    0.000000000       1
%endblock AtomicCoordinatesAndAtomicSpecies

%include ../../../Defaults.fdf
