# Created by GDIS version 0.90.0
#

SystemLabel      C

NumberOfAtoms    13

NumberOfSpecies  4
%block ChemicalSpeciesLabel
    1    1  H
    2    7  N
    3   14  Si
    4    8  O
%endblock ChemicalSpeciesLabel

AtomicCoordinatesFormat NotScaledCartesianAng
%block AtomicCoordinatesAndAtomicSpecies
    1.07571200    3.82916874    0.00000000   1       1  H
    0.45886177    2.96529489   -0.00000000   2       2  N
   -1.29350027    3.24938905    0.00000000   3       3  Si
   -1.65166164    4.70451468   -0.00000000   1       4  H
   -2.72508540    1.60321315   -0.00000000   3       5  Si
   -4.21691642    1.74148542    0.00000000   1       6  H
   -1.33000544   -0.14636172    0.00000000   3       7  Si
   -2.01380705   -1.75466429    0.00000000   2       8  N
   -1.40609867   -2.61295866   -0.00000000   1       9  H
   -3.05571330   -1.91711525    0.00000000   1      10  H
    0.35466701   -0.01492098   -0.00000000   2      11  N
    1.38085443    1.37498623    0.00000000   3      12  Si
    2.97283730    1.48016461   -0.00000000   4      13  O
%endblock AtomicCoordinatesAndAtomicSpecies

%include ../defaults.fdf



