SystemLabel      AT

NumberOfAtoms    30

NumberOfSpecies  4
%block ChemicalSpeciesLabel
    1    1  H
    2    7  N
    3   14  Si
    4    8  O
%endblock ChemicalSpeciesLabel

# Single point calculation
MD.TypeOfRun                CG
MD.Steps                    0
SCF.MustConverge            F # In case it does not. There can be 2 very close atoms

AtomicCoordinatesFormat NotScaledCartesianAng
%block AtomicCoordinatesAndAtomicSpecies
2.582377650    -5.776830440   0.000000000       1
1.654759240    -5.269361980   0.000000000       2
0.063128840    -6.101704590   0.000000000       3
0.119223240    -7.596849500   0.000000000       1
-1.376892050   -5.182603740   0.000000000       2
-0.824371900   -3.460866440   0.000000000       3
-1.170571480   -1.270002100   0.000000000       3
-2.706933680   -0.417515780   0.000000000       2
-2.754569660   0.634858620    0.000000000       1
-3.637675640   -0.909967860   0.000000000       1
0.218091790    -0.234193970   0.000000000       2
1.872004100    -0.697162300   0.000000000       3
2.828001130    0.461464770    0.000000000       1
2.648150080    -2.255024470   0.000000000       2
1.391921380    -3.454727220   0.000000000       3
1.859650211    7.080582871    0.000000000       2
0.532278691    8.290787171    0.000000000       3
1.172279961    9.652105411    0.000000000       1
-1.553467249   7.620255821    0.000000000       3
-3.583029849   8.750372011    0.000000000       3
-3.428794079   9.910602221    0.940305280       1
-4.568964569   7.728451391    0.512613700       1
-3.999244809   9.226597861    -1.366678340      1
-1.486971829   5.346279201    0.000000000       3
-2.526020559   4.153219701    0.000000000       4
0.170019751    4.712304011    0.000000000       2
0.152002381    3.649859181    0.000000000       1
1.793622821    5.309374221    0.000000000       3
2.988638991    4.294949021    0.000000000       4
2.859687581    7.426089971    0.000000000       1
%endblock AtomicCoordinatesAndAtomicSpecies

%include ../../../Defaults.fdf
