# mpirun -np 4 siesta-4.1.5 < GC.fdf > GC.out &

SystemLabel      GC

NumberOfAtoms    29

NumberOfSpecies  4
%block ChemicalSpeciesLabel
    1    1  H
    2    7  N
    3   14  Si
    4    8  O
%endblock ChemicalSpeciesLabel

############################################
# This overrides Defaults.fdf configuration
############################################
MD.TypeOfRun                CG # CG, Verlet
MD.Steps                    0
MaxSCFIterations            600

AtomicCoordinatesFormat NotScaledCartesianAng
%block AtomicCoordinatesAndAtomicSpecies
    0.01908579797945742 5.108586182556791 0.0  1  1  H
    -0.6874009320205425 4.3185500025567904 0.0  2  2  N
    -2.4176878420205425 4.75991391255679 0.0  3  3  Si
    -2.5734675220205423 6.24990617255679 0.0  1  4  H
    -3.941009462020543 3.20100639255679 0.0  3  5  Si
    -5.424197092020543 3.4438367525567903 0.0  1  6  H
    -2.7426186020205425 1.2877302325567905 0.0  3  7  Si
    -3.508644062020543 -0.2449865074432096 0.0  2  8  N
    -2.9183975120205425 -1.2021995374432095 0.0  1  9  H
    -4.560266382020543 -0.3254467374432095 0.0  1  10  H
    -1.0264185420205425 1.3429045425567905 0.0  2  11  N
    0.04860407797945743 2.6732433825567905 0.0  3  12  Si
    1.6572773979794573 2.6544331225567905 0.0  4  13  O
    5.6164483 -7.44953905 0.0  1  14  H
    4.58206954 -7.2320376 0.0  2  15  N
    3.29666389 -8.492636 0.0  3  16  Si
    3.80117524 -9.90371886 -0.0  1  17  H
    1.65934232 -8.01362137 0.0  2  18  N
    1.68097912 -6.20463398 -0.0  3  19  Si
    0.54543521 -4.28636135 0.0  3  20  Si
    -1.03431493 -3.94450034 0.0  4  21  O
    1.73226934 -2.87719605 0.0  2  22  N
    1.20957366 -1.92961761 -0.0  1  23  H
    3.50853448 -2.77677601 0.0  3  24  Si
    4.13684451 -1.17938608 0.0  2  25  N
    3.54296161 -0.26248101 0.0  1  26  H
    5.18364407 -1.05231197 -0.0  1  27  H
    4.63288658 -4.07521596 -0.0  2  28  N
    3.79410501 -5.58634043 0.0  3  29  Si
%endblock AtomicCoordinatesAndAtomicSpecies

%include ../../../../Defaults.fdf