SystemLabel      10G_Chain

NumberOfAtoms    636

NumberOfSpecies  5
%block ChemicalSpeciesLabel
    1   14  Si
    2    1  H
    3    8  O
    4    7  N
    5   15  P
%endblock ChemicalSpeciesLabel

############################################
# This overrides Defaults.fdf configuration
############################################
MD.TypeOfRun                Verlet # CG, Verlet
MD.Steps                    0
MD.Quench                   True
SCF.H.Tolerance             0.00005 eV
SCF.DM.Tolerance            0.00005
MD.MaxForceTol              0.005 eV/Ang

SCF.MustConverge            F
MD.LengthTimeStep           0.5 fs

#weight 0.07
SCF.Mixer.Restart.Save      4
SCF.Mixer.History           10
SCF.Mixer.Weight      0.1

AtomicCoordinatesFormat NotScaledCartesianAng
%block AtomicCoordinatesAndAtomicSpecies
   -1.73716909   16.90605293    2.95727884   1       1  Si
   -2.40794426   15.82112999    3.76172357   2       2  H
   -1.33942546   18.06911099    3.84739867   2       3  H
    0.31681506   16.02464902    2.17179767   1       4  Si
    1.16206874   16.09224272    3.41296372   2       5  H
    0.17749346   14.29524081    1.83323480   3       6  O
   -0.17919661   13.74079301    0.22504749   1       7  Si
    0.80323192   12.67763420   -0.17461361   2       8  H
    1.05096638   17.10904676    0.20305321   1       9  Si
    0.53378982   18.52140289    0.17466669   2      10  H
   -0.22472903   15.66912223   -1.17468382   1      11  Si
   -1.60652251   16.27081146   -1.31208923   2      12  H
    0.35669025   15.37178244   -2.53675014   2      13  H
   -0.31737146    2.08709600    0.20043107   4      14  N
   -1.89970157    1.33903503    0.71923503   1      15  Si
   -2.05209122   -0.09240086    0.34952271   2      16  H
   -3.16505937    2.25740145    1.38713075   4      17  N
   -2.59673655    3.95346217    1.54459265   1      18  Si
   -3.48630929    5.86087343    0.50801968   1      19  Si
   -4.99183556    6.38223409    0.26287902   3      20  O
   -2.05533399    6.94726104    0.26431634   4      21  N
   -2.32069708    8.00393586    0.26097730   2      22  H
   -0.30231862    6.62827137    0.19721181   1      23  Si
    0.68543820    8.00162655    0.35921102   4      24  N
    0.35625996    9.07960775    0.34924365   2      25  H
    1.72397752    7.83167911    0.26939424   2      26  H
    0.49068302    5.10407739   -0.03822206   4      27  N
   -0.59760494    3.85474215    0.37736917   1      28  Si
   -1.80990549   12.76135200    0.28169512   4      29  N
   -3.41383997   13.52437076    0.26814324   1      30  Si
   -3.21173089   15.01449921    0.26209345   2      31  H
   -5.31169602   12.46794436    0.92295866   1      32  Si
   -6.42235046   12.94532597   -0.00039586   2      33  H
   -4.61062733   10.36193914    0.29553637   1      34  Si
   -5.74302335    9.05686560    0.25518508   4      35  N
   -5.46132638    8.00601808    0.17711795   2      36  H
   -6.77943765    9.25863740    0.26182179   2      37  H
   -2.95136136    9.87339261    0.32019876   4      38  N
   -1.62816159   10.96354571    0.31770903   1      39  Si
   -0.09054955   10.51731474    0.26296013   3      40  O
   -1.60507772   -2.51646334   -1.22569834   3      41  O
   -0.38499460   -1.97983896   -2.36426054   1      42  Si
   -0.98134954   -0.89785641   -3.23677164   2      43  H
    0.00086684   -3.14759101   -3.23735645   2      44  H
    1.72275218   -1.22218214   -1.47947357   1      45  Si
    2.67643877   -1.43962417   -2.62524915   2      46  H
    1.87043243    0.53829544   -1.22166519   3      47  O
    1.39774059    1.26935560    0.27054847   1      48  Si
    2.23008810    2.51659426    0.43768779   2      49  H
    2.30420721   -2.16540093    0.61854633   1      50  Si
    1.87313309   -3.59639366    0.78751207   2      51  H
    1.21801141   -0.50419761    1.87265188   1      52  Si
   -0.27082430   -0.71900069    2.01118171   2      53  H
    1.78461007   -0.26784190    3.23676837   2      54  H
   -2.94487130   17.44317744    1.75588045   3      55  O
   -4.08222251   18.56577282    2.48691209   5      56  P
   -3.48049504   20.03833143    2.53980336   3      57  O
   -5.44368249   18.51855043    1.74567944   3      58  O
    2.76382926   17.08054199   -0.08780648   3      59  O
    4.01313283   -1.88866702    0.87289945   3      60  O
    4.52438580   -1.95726149    2.49338504   5      61  P
    5.88613780   -2.69543934    2.62350057   3      62  O
    3.30286795   -2.51463287    3.32181037   3      63  O
    4.72833044   -0.26966945    2.71251078   3      64  O
   -2.38161189   -2.96171695   -1.66116278   2      65  H
    3.03455861   17.44361427   -0.96812661   2      66  H
   -8.01593134   14.58081494    7.00635787   1      67  Si
   -7.76165734   13.30427432    7.78263421   2      68  H
   -8.47628419   15.64424542    7.95959027   2      69  H
   -5.87010347   15.28869126    6.24753323   1      70  Si
   -5.20966120   15.83809763    7.49609204   2      71  H
   -4.90835000   13.84609515    5.85649239   3      72  O
   -4.89082092   13.23006380    4.23437989   1      73  Si
   -3.47756739   13.12522945    3.76003648   2      74  H
   -6.07948676   16.66831016    4.29996039   1      75  Si
   -7.31552917   17.53041302    4.28583916   2      76  H
   -6.19890464   14.73890809    2.92237980   1      77  Si
   -7.58644055   14.20357991    2.71053759   2      78  H
   -5.61934776   15.10322428    1.57379454   2      79  H
    2.67440184    4.15107483    3.97825481   4      80  N
    2.06174010    2.47526603    4.09211804   1      81  Si
    3.12281181    1.43659623    4.02227855   2      82  H
    0.37138157    2.17328057    4.25022604   4      83  N
   -0.41774916    3.73177734    4.59535738   1      84  Si
   -2.28185182    4.88553127    3.76066675   1      85  Si
   -3.74853982    4.49614198    4.28536097   3      86  O
   -1.79637323    6.67100129    3.87708588   4      87  N
   -2.67783487    7.28196836    4.02315175   2      88  H
   -0.30459666    7.60831357    3.97738211   1      89  Si
   -0.47690287    9.28210091    4.25380932   4      90  N
   -1.42614415    9.88752899    4.28428514   2      91  H
    0.41527950    9.84880169    4.29633274   2      92  H
    1.30192000    6.94621034    3.90610521   4      93  N
    1.25589670    5.24662883    4.06240958   1      94  Si
   -5.46309084   11.42496928    4.33274954   4      95  N
   -7.18844388   10.96739741    4.29879544   1      96  Si
   -8.02786622   12.22613095    4.28518443   2      97  H
   -7.93380272    8.92825084    4.92841645   1      98  Si
   -9.18680760    8.63037290    4.11016660   2      99  H
   -6.05347427    7.74940440    4.29063559   1     100  Si
   -6.05731970    6.01860879    4.32039529   4     101  N
   -5.15849020    5.39374603    4.28364721   2     102  H
   -6.95869980    5.48415558    4.19776830   2     103  H
   -4.48402329    8.47792343    4.32098036   4     104  N
   -4.15801494   10.16008476    4.32871183   1     105  Si
   -2.67748621   10.78650226    4.28528500   3     106  O
    5.32859125    0.93719176    1.58993252   1     107  Si
    4.10628136    1.34816812    0.78544617   2     108  H
    6.42070416    0.36050889    0.70092427   2     109  H
    6.31924106    2.94478605    2.54371058   1     110  Si
    7.22693255    3.32692125    1.39889911   2     111  H
    5.26436619    4.40106037    2.71302878   3     112  O
    4.46706067    4.65148073    4.21460190   1     113  Si
    4.28203925    6.11535854    4.45966440   2     114  H
    7.29699709    2.61371869    4.71258039   1     115  Si
    7.93850220    1.25917438    4.89761846   2     116  H
    5.35257628    3.21644278    5.88442271   1     117  Si
    4.28154320    2.15626473    6.03498139   2     118  H
    5.53050212    3.95622460    7.17299179   2     119  H
   -9.27950207   14.29443492    5.77874413   3     120  O
  -10.90421520   14.46145724    6.43368423   5     121  P
  -11.32643398   15.99468092    6.30066089   3     122  O
  -11.86432653   13.48445794    5.68303848   3     123  O
   -4.63310987   17.53423671    3.93243951   3     124  O
    8.38532147    3.95640206    4.98552024   3     125  O
    8.81616005    4.26901316    6.62496948   5     126  P
   10.34386095    4.58467473    6.73366277   3     127  O
    8.20781796    3.05875666    7.43267284   3     128  O
    7.85154634    5.66296399    6.99476334   3     129  O
  -11.64817648    9.04784322   11.07212370   1     130  Si
  -10.70585968    8.18094966   11.89266836   2     131  H
  -12.66740825    9.70800871   11.98033107   2     132  H
  -10.26966713   10.91746619   10.31862899   1     133  Si
  -10.16944809   11.68602412   11.63028437   2     134  H
   -8.56920497   10.42898841    9.96737402   3     135  O
   -8.19727963   10.03819764    8.31883630   1     136  Si
   -7.04621404   10.87784857    7.87010978   2     137  H
  -11.24694371   12.00379137    8.37369520   1     138  Si
  -12.75540375   11.86636417    8.39591763   2     139  H
  -10.14797265   10.43145424    6.99440479   1     140  Si
  -10.97328355    9.16885988    6.90757786   2     141  H
   -9.81999077   10.96006695    5.60921636   2     142  H
    3.31421019    7.92503187    8.34406457   4     143  N
    3.78592541    6.25938775    8.92919476   1     144  Si
    5.17426016    5.84334211    8.57079576   2     145  H
    2.64216641    5.19137337    9.59648275   4     146  N
    1.05602592    6.03404777    9.74106331   1     147  Si
   -0.91760632    5.45044255    8.58911586   1     148  Si
   -1.69350925    4.04869421    8.39543000   3     149  O
   -1.77070869    7.01635815    8.28233666   4     150  N
   -2.85627518    6.92241974    8.30715751   2     151  H
   -1.16541736    8.69035874    8.20024740   1     152  Si
   -2.36652184    9.87322979    8.36801629   4     153  N
   -3.47963853    9.71081514    8.39556537   2     154  H
   -2.05221075   10.87877524    8.30765141   2     155  H
    0.47848828    9.19333705    7.97149165   4     156  N
    1.52344690    7.96609349    8.53287053   1     157  Si
   -7.49794466    8.27273933    8.41959401   4     158  N
   -8.53971823    6.83411372    8.43202580   1     159  Si
   -9.98984098    7.28134470    8.39545681   2     160  H
   -7.79357363    4.79739097    9.12291449   1     161  Si
   -8.47441338    3.77622657    8.22045721   2     162  H
   -5.58031949    5.11151519    8.47876815   1     163  Si
   -4.47025672    3.78164882    8.43248743   4     164  N
   -3.39105691    3.86707824    8.30885849   2     165  H
   -4.81830243    2.78681719    8.39527109   2     166  H
   -4.84090057    6.67772691    8.50323799   4     167  N
   -5.69200883    8.16711911    8.46101739   1     168  Si
   -4.99555184    9.61657580    8.39571123   3     169  O
    7.51254794    6.98033530    5.88672256   1     170  Si
    6.42181070    6.47310665    4.98263731   2     171  H
    8.74343254    7.28256069    5.07175703   2     172  H
    6.95548602    9.19878700    6.71450634   1     173  Si
    7.40527152    9.98020272    5.50844741   2     174  H
    5.26432160    9.79480852    6.91207467   3     175  O
    4.44462597    9.45943833    8.40823756   1     176  Si
    3.39072996   10.51676368    8.65562790   2     177  H
    8.00539422    9.59229381    8.81726921   1     178  Si
    9.27733414    8.80975614    9.00780738   2     179  H
    6.09617948    8.96033909   10.05575181   1     180  Si
    5.97673555    7.45978144   10.23229519   2     181  H
    5.79852302    9.61929555   11.36946703   2     182  H
  -12.48816323    8.00260047    9.88551875   3     183  O
  -13.86978819    7.08434576   10.25950874   5     184  P
  -15.15867719    7.99702200   10.06314213   3     185  O
  -13.91521183    5.75391835    9.44633587   3     186  O
  -10.79191093   13.66835592    8.04192340   3     187  O
    8.20501831   11.32656694    9.00940744   3     188  O
    8.24674083   11.77660508   10.66902622   5     189  P
    9.27342022   12.94396306   10.84452714   3     190  O
    8.64797405   10.43326881   11.45358082   3     191  O
    6.51726495   12.31429394   10.93104888   3     192  O
  -10.63395915    2.53615011   15.23424635   1     193  Si
   -9.27763182    2.51831162   15.91589488   2     194  H
  -11.68794132    2.24685211   16.26687472   2     195  H
  -10.98200189    4.76735419   14.44862123   1     196  Si
  -11.33102890    5.48446969   15.74055094   2     197  H
   -9.36812907    5.39329109   14.07645937   3     198  O
   -8.74823484    5.36472269   12.45423966   1     199  Si
   -8.38579067    6.74279021   11.98182753   2     200  H
  -12.36882806    4.88447663   12.44190219   1     201  Si
  -13.38194021    3.77392399   12.50582675   2     202  H
  -10.45311249    4.36730019   11.10821045   1     203  Si
  -10.25867626    2.87494578   11.01827158   2     204  H
  -10.61558726    4.94430650    9.70896856   2     205  H
    1.52284516   11.20876307   12.25528151   4     206  N
    3.06282870   10.31101716   12.40662915   1     207  Si
    4.28471042   11.14866483   12.33025298   2     208  H
    3.08029777    8.59592838   12.54308108   4     209  N
    1.40756566    8.07062178   12.87040597   1     210  Si
    0.03061391    6.40695074   11.93701057   1     211  Si
    0.08772447    4.94308312   12.59277290   3     212  O
   -1.67694290    7.17292805   11.92510942   4     213  N
   -2.40928714    6.38384855   12.06883927   2     214  H
   -2.35491996    8.79458045   12.10462149   1     215  Si
   -4.02458505    8.97068788   12.43679812   4     216  N
   -4.81590049    8.18130966   12.50537687   2     217  H
   -4.37065388    9.97267243   12.50447029   2     218  H
   -1.44092520   10.27597415   12.03563346   4     219  N
    0.21067970    9.98132781   12.33590562   1     220  Si
   -7.07668939    4.47822595   12.56132385   4     221  N
   -6.96881436    2.70093564   12.51878753   1     222  Si
   -8.38376100    2.15741963   12.59295423   2     223  H
   -5.05644408    1.59859709   13.04958018   1     224  Si
   -4.99572177    0.36101083   12.15652492   2     225  H
   -3.56855279    3.26452001   12.42579880   1     226  Si
   -1.86332111    2.97723585   12.52793185   4     227  N
   -1.07893459    3.75605354   12.51032282   2     228  H
   -1.51567394    1.97886055   12.50523635   2     229  H
   -4.00776333    4.93583209   12.40046947   4     230  N
   -5.60588594    5.54110910   12.52596724   1     231  Si
   -5.97546823    7.10118793   12.59299171   3     232  O
    5.33175149   13.16790350    9.95283264   1     233  Si
    4.72989226   12.13878251    9.00735547   2     234  H
    5.97774791   14.29408045    9.18200449   2     235  H
    3.38996123   14.49239194   10.84041501   1     236  Si
    3.21233280   15.37274062    9.61967350   2     237  H
    1.70011514   13.84368465   11.02074040   3     238  O
    1.30638579   13.06099811   12.49980667   1     239  Si
   -0.17999503   13.12530671   12.68116093   2     240  H
    3.80708870   15.49333289   12.97525888   1     241  Si
    5.26261581   15.82235724   13.20553382   2     242  H
    2.86728863   13.70574342   14.17161854   1     243  Si
    3.74880764   12.49323252   14.34249623   2     244  H
    2.22859008   14.02444480   15.48154336   2     245  H
  -10.61636911    1.25527093   13.99968048   3     246  O
  -10.99127330   -0.34357674   14.66285448   5     247  P
  -12.57066226   -0.53761155   14.52176733   3     248  O
  -10.16917931   -1.43724239   13.90510450   3     249  O
  -13.02790434    6.38664942   11.97637689   3     250  O
    2.67602727   16.81150542   13.21040268   3     251  O
    2.48664588   17.30047239   14.91664626   5     252  P
    2.40892662   18.87202064   15.04100843   3     253  O
    3.56377935   16.45441290   15.73763683   3     254  O
    0.89417305   16.63178133   15.30175904   3     255  O
   -5.81763780   -1.99584724   19.28186582   1     256  Si
   -4.72741096   -1.25878626   20.02690365   2     257  H
   -6.60232802   -2.87868342   20.20402668   2     258  H
   -7.42523436   -0.33589640   18.53658257   1     259  Si
   -8.11884714   -0.09029702   19.85368906   2     260  H
   -6.69087403    1.25478285   18.18769683   3     261  O
   -6.17124603    1.52583640   16.55278126   1     262  Si
   -6.77137658    2.80792764   16.07166517   2     263  H
   -8.62882245   -1.11573792   16.61540801   1     264  Si
   -8.74245804   -2.60923431   16.70324427   2     265  H
   -6.84569739   -0.35737707   15.25824566   1     266  Si
   -5.70968120   -1.34922863   15.12897802   2     267  H
   -7.31536763    0.08962829   13.90295820   2     268  H
   -2.09555029   12.60291099   16.50037928   4     269  N
   -0.32366169   12.87080404   16.52456501   1     270  Si
    0.09025739   14.29422742   16.35326405   2     271  H
    0.74045528   11.52816210   16.70323234   4     272  N
   -0.27261628   10.16724079   17.29232355   1     273  Si
   -0.41161162    7.95880936   16.65973947   1     274  Si
    0.80174394    6.92125865   16.70247894   3     275  O
   -2.13079239    7.38336675   16.61670514   4     276  N
   -2.22915213    6.29407944   16.61629375   2     277  H
   -3.66446802    8.28742960   16.60424017   1     278  Si
   -5.05388092    7.31091031   16.65948189   4     279  N
   -5.08590202    6.20329982   16.70252354   2     280  H
   -5.97811289    7.81947737   16.61620012   2     281  H
   -3.86407055   10.00295769   16.57370080   4     282  N
   -2.37549153   10.83822543   16.70656087   1     283  Si
   -4.30219197    1.88909318   16.68170971   4     284  N
   -3.06742049    0.62580180   16.74853088   1     285  Si
   -3.74686848   -0.71978746   16.70332778   2     286  H
   -0.94079459    1.00166158   17.48110004   1     287  Si
   -0.08889173    0.17994579   16.52759369   2     288  H
   -0.88942731    3.21705391   16.76850895   1     289  Si
    0.62009355    4.05491597   16.75052188   4     290  N
    0.71434081    5.12495022   16.61659943   2     291  H
    1.51795986    3.50672315   16.70320090   2     292  H
   -2.27115583    4.24618405   16.72612700   4     293  N
   -3.87708575    3.65146102   16.71615797   1     294  Si
   -5.17287493    4.58574717   16.70369084   3     295  O
   -0.42171642   16.50817044   14.14556957   1     296  Si
   -0.08941215   15.37251070   13.20456593   2     297  H
   -0.53578344   17.80071355   13.37941128   2     298  H
   -2.70976820   16.30393041   14.96876058   1     299  Si
   -3.47907759   16.90149745   13.81664175   2     300  H
   -3.56499558   14.74518483   15.21816672   3     301  O
   -3.44283538   13.90413462   16.71232531   1     302  Si
   -4.57532839   12.92728003   16.84082184   2     303  H
   -2.87717900   17.40901536   17.05803771   1     304  Si
   -1.87339685   18.51899167   17.22898886   2     305  H
   -2.62263115   15.45157006   18.34263647   1     306  Si
   -1.15648074   15.10057148   18.45340798   2     307  H
   -3.29903948   15.37158880   19.67768253   2     308  H
   -4.99570018   -3.05334972   18.10381707   3     309  O
   -4.38651511   -4.58765187   18.18641119   5     310  P
   -5.44592357   -5.66467834   18.19432039   3     311  O
   -3.02749803   -4.85145315   17.57688088   3     312  O
  -10.17382670   -0.35692278   16.34669333   3     313  O
   -4.55031562   17.88980333   17.23250120   3     314  O
   -5.00039110   18.07214026   18.91198304   5     315  P
   -6.06294384   19.23148696   19.06413196   3     316  O
   -3.66156207   18.24742054   19.76112369   3     317  O
    1.26622312   -2.23585560   23.46518565   1     318  Si
    1.33859319   -0.91172416   24.21895190   2     319  H
    1.33774987   -3.41610149   24.40022197   2     320  H
   -0.99920961   -2.14732447   22.65286310   1     321  Si
   -1.79194999   -2.52070682   23.88073879   2     322  H
   -1.42590443   -0.45116428   22.38436945   3     323  O
   -1.27734772    0.21314044   20.77833700   1     324  Si
   -2.58745609    0.80944475   20.37685510   2     325  H
   -1.54660515   -3.50891810   20.64275787   1     326  Si
   -0.54429183   -4.65352372   20.64121581   2     327  H
   -0.61818757   -1.61073553   19.38727521   1     328  Si
    0.89118705   -1.70871460   19.24004146   2     329  H
   -1.24957153   -1.70778169   18.01546994   2     330  H
   -5.11555923   11.21039668   20.73666099   4     331  N
   -3.89843548   12.45822197   21.26608313   1     332  Si
   -4.28198049   13.84602833   20.90183285   2     333  H
   -2.37752503   12.03781457   21.90015620   4     334  N
   -2.34044643   10.24660846   22.07740178   1     335  Si
   -0.88776597    8.76048546   20.99408687   1     336  Si
    0.71084022    8.80909524   20.81386226   3     337  O
   -1.81419622    7.22257333   20.74191451   4     338  N
   -1.18209069    6.32624368   20.72396549   2     339  H
   -3.57277658    6.93252860   20.68708936   1     340  Si
   -4.04930297    5.31383891   20.88354284   4     341  N
   -3.37400721    4.42007608   20.89150583   2     342  H
   -5.08548274    5.12353039   20.81383217   2     343  H
   -4.82464108    8.10754526   20.44765621   4     344  N
   -4.24273754    9.64905661   20.90272642   1     345  Si
   -0.06002013    1.67085315   20.87008805   4     346  N
    1.71325998    1.49873759   20.83299195   1     347  Si
    2.04918631    0.02140687   20.81409032   2     348  H
    3.12871742    3.17520723   21.43848863   1     349  Si
    4.28284434    3.05626327   20.46348619   2     350  H
    1.76526465    4.92473465   20.79214049   1     351  Si
    2.35656177    6.54830320   20.78368682   4     352  N
    1.72473034    7.43361568   20.71892657   2     353  H
    3.39054314    6.74255449   20.72618702   2     354  H
    0.04229165    4.80133513   20.84998135   4     355  N
   -0.81523137    3.32217092   20.86412331   1     356  Si
   -2.40859653    3.23681448   20.81412502   3     357  O
   -5.53224928   16.36663867   19.23830649   3     358  O
   -6.53145620   15.35195100   18.21087124   1     359  Si
   -5.55736125   14.64813815   17.29350240   2     360  H
   -7.40739424   16.18418733   17.31562094   2     361  H
   -8.11980133   13.68479365   19.06446104   1     362  Si
   -9.00996650   13.57522792   17.84108627   2     363  H
   -7.66964931   11.95996755   19.32891843   3     364  O
   -6.99651296   11.42287443   20.82348232   1     365  Si
   -7.40392185    9.97921831   20.98932925   2     366  H
   -9.01636982   14.33144019   21.16848705   1     367  Si
   -9.09925491   15.82265463   21.33921615   2     368  H
   -7.40994208   13.14836385   22.43118676   1     369  Si
   -6.06572339   13.84447272   22.56306810   2     370  H
   -7.84988838   12.67551563   23.78712576   2     371  H
    2.58985558   -2.33896840   22.30632942   3     372  O
    4.09051791   -2.98943061   23.01877200   5     373  P
    4.01275585   -4.57534858   23.09097167   3     374  O
    5.35202574   -2.42666242   22.29851649   3     375  O
   -3.12076550   -3.86403314   20.20239990   3     376  O
  -10.52591529   13.48545585   21.42466538   3     377  O
  -11.03801047   13.34932215   23.04170653   5     378  P
  -12.57528285   13.57337083   23.17494780   3     379  O
  -10.08172467   14.29073857   23.87363074   3     380  O
  -10.61648261   11.68705282   23.26288456   3     381  O
    6.41289199    2.09251144   27.55061129   1     382  Si
    5.70947401    3.23662302   28.24835749   2     383  H
    7.22569448    1.25871705   28.51039386   2     384  H
    4.64702323    0.70272722   26.76027007   1     385  Si
    4.28035940   -0.09065854   27.98699897   2     386  H
    3.21435108    1.70707044   26.40776211   3     387  O
    2.98198169    2.28867095   24.78425837   1     388  Si
    1.60677284    1.88840014   24.31221544   2     389  H
    5.30799524   -0.52535590   24.81666688   1     390  Si
    6.77797215   -0.89932209   24.83669215   2     391  H
    4.75499333    1.35071077   23.46240984   1     392  Si
    5.88770462    2.33696905   23.26198653   2     393  H
    4.28257734    0.80924232   22.12574879   2     394  H
   -7.21800000    8.26477225   24.51276225   4     395  N
   -7.21966199   10.05293827   24.62895175   1     396  Si
   -8.56423945   10.69788260   24.57401148   2     397  H
   -5.72735132   10.90519386   24.78041233   4     398  N
   -4.45289849    9.71092362   25.11988415   1     399  Si
   -2.29950121    9.27766694   24.30201857   1     400  Si
   -1.06835245   10.15790653   24.83693170   3     401  O
   -2.12600976    7.43538965   24.41454646   4     402  N
   -1.07783249    7.18581750   24.57347912   2     403  H
   -3.22552882    6.05070144   24.50910317   1     404  Si
   -2.49920995    4.53627311   24.78784444   4     405  N
   -1.40800730    4.30865745   24.82400255   2     406  H
   -3.12300287    3.68604245   24.83688781   2     407  H
   -4.96253002    6.11273681   24.42635523   4     408  N
   -5.50804914    7.72222658   24.58752165   1     409  Si
    2.91979182    4.18732622   24.87195202   4     410  N
    4.39048882    5.20387832   24.84245924   1     411  Si
    5.61862020    4.31522676   24.83691216   2     412  H
    4.37151275    7.37731994   25.47477300   1     413  Si
    5.44104706    8.09067740   24.66149097   2     414  H
    2.20980470    7.86345036   24.82672254   1     415  Si
    1.61708084    9.48964553   24.86775488   4     416  N
    0.55442326    9.77947524   24.83108977   2     417  H
    2.29836525   10.28849287   24.75180418   2     418  H
    0.98850510    6.64030294   24.83988135   4     419  N
    1.27079044    4.95123223   24.86480887   1     420  Si
    0.08951255    3.86676869   24.83675767   3     421  O
  -10.81850966   10.35290891   22.13009011   1     422  Si
   -9.61529303   10.35948064   21.21127600   2     423  H
  -12.04338082   10.51839888   21.25335480   2     424  H
  -11.03456267    8.12197098   23.08529651   1     425  Si
  -11.77584335    7.46022595   21.95003893   2     426  H
   -9.54791335    7.10553937   23.26464778   3     427  O
   -8.71362206    7.16082643   24.76847602   1     428  Si
   -8.02876375    5.84318337   25.01143376   2     429  H
  -12.07236021    8.09601468   25.24749353   1     430  Si
  -13.11303734    9.16943669   25.44891096   2     431  H
  -10.04736867    8.22217446   26.43226755   1     432  Si
   -9.45618045    9.61827433   26.58625515   2     433  H
   -9.99024718    7.46175210   27.72396398   2     434  H
    7.49626064    2.78757924   26.32923704   3     435  O
    9.08348789    3.21909888   26.96867312   5     436  P
    9.98555566    1.89541329   26.85220445   3     437  O
    9.63357308    4.49335431   26.23553751   3     438  O
    4.19008679   -1.80309867   24.48379054   3     439  O
  -12.66663611    6.47232301   25.53659122   3     440  O
  -12.94897854    6.03651180   27.17236912   5     441  P
  -14.27030814    5.21560610   27.28542829   3     442  O
  -12.75698208    7.36993126   27.98459224   3     443  O
  -11.59666311    5.03376973   27.54536155   3     444  O
    7.93058764    8.54387643   31.61577054   1     445  Si
    6.75373437    9.07502017   32.40421052   2     446  H
    9.09961220    8.27146187   32.53289891   2     447  H
    7.28855923    6.32979220   30.85814779   1     448  Si
    7.40523536    5.57445624   32.18221329   2     449  H
    5.53455514    6.20425555   30.51802140   3     450  O
    5.02180623    6.45728542   28.87681911   1     451  Si
    4.19266465    5.30242536   28.42181442   2     452  H
    8.54121022    5.66118843   28.90424815   1     453  Si
    9.90322090    6.29388662   28.94712485   2     454  H
    6.98033165    6.79612693   27.53974068   1     455  Si
    7.31521929    8.27082970   27.45966223   2     456  H
    6.86914674    6.20354816   26.14932186   2     457  H
   -6.54366124    4.50891435   28.86288154   4     458  N
   -7.55070053    5.91471281   29.46013964   1     459  Si
   -9.00892231    5.84341220   29.12243546   2     460  H
   -6.82684846    7.30113707   30.13078230   4     461  N
   -5.04785747    7.04979571   30.24899744   1     462  Si
   -3.38811635    8.29811298   29.12372831   1     463  Si
   -3.12263162    9.88451845   28.94704831   3     464  O
   -2.05680016    7.09452016   28.82523938   4     465  N
   -1.06768554    7.55191598   28.85815073   2     466  H
   -2.05668867    5.31217161   28.73612272   1     467  Si
   -0.54000304    4.56222441   28.91757835   4     468  N
    0.45996111    5.05458719   28.94699316   2     469  H
   -0.53465079    3.50623286   28.85922805   2     470  H
   -3.43119318    4.27895462   28.48670323   4     471  N
   -4.83885897    5.08461321   29.02538779   1     472  Si
    3.74767998    7.86392700   28.98164792   4     473  N
    4.21781783    9.56788558   28.98091672   1     474  Si
    5.71703727    9.62295859   28.94614327   2     475  H
    2.83363812   11.22290289   29.67471112   1     476  Si
    3.12244161   12.40652306   28.77137480   2     477  H
    0.86732599   10.18512770   29.01351827   1     478  Si
   -0.61847383   11.07474170   28.96768770   4     479  N
   -1.60306486   10.61011485   28.86016235   2     480  H
   -0.62388523   12.13371288   28.94668046   2     481  H
    0.70375936    8.46071749   29.01209835   4     482  N
    2.01506242    7.35147436   28.99782101   1     483  Si
    1.87163360    5.75481205   28.94720287   3     484  O
  -10.82261119    3.93729368   26.40063388   1     485  Si
   -9.99113735    4.76511967   25.44862577   2     486  H
  -11.88524974    3.21508771   25.61228443   2     487  H
   -9.54691618    2.04195808   27.22120700   1     488  Si
   -9.72311300    1.07939163   26.06161561   2     489  H
   -7.76337191    2.07099740   27.46253381   3     490  O
   -7.07706410    2.67754913   28.93453121   1     491  Si
   -5.70998959    2.06770269   29.12083467   2     492  H
  -10.39376774    1.35476083   29.32517755   1     493  Si
  -11.84806621    1.69718345   29.55860150   2     494  H
   -8.80359621    2.58291165   30.57553657   1     495  Si
   -9.18898104    4.04655443   30.69699944   2     496  H
   -8.38479666    2.06796814   31.92096004   2     497  H
    8.38580089    9.79755714   30.43564127   3     498  O
    9.32828084   11.16300013   30.76997178   5     499  P
   10.87456791   10.78949832   30.52784450   3     500  O