# mpirun -np 4 siesta-4.1.5 < AT.fdf > AT.out &

SystemLabel      AT

NumberOfAtoms    30

NumberOfSpecies  4
%block ChemicalSpeciesLabel
    1    1  H
    2    7  N
    3   14  Si
    4    8  O
%endblock ChemicalSpeciesLabel

############################################
# This overrides Defaults.fdf configuration
############################################
MD.TypeOfRun                Verlet # CG, Verlet
MD.Steps                    0
MaxSCFIterations            200
SCF.MustConverge            F

AtomicCoordinatesFormat NotScaledCartesianAng
%block AtomicCoordinatesAndAtomicSpecies
    2.28494382 -5.19529124 0.0  1  1  H
    1.37433094 -4.6647107 0.0  2  2  N
    -0.21830245 -5.49458215 0.0  3  3  Si
    -0.17484108 -6.98516892 0.0  1  4  H
    -1.66171682 -4.58600741 0.0  2  5  N
    -1.09026419 -2.87456374 0.0  3  6  Si
    -1.53038332 -0.70765692 0.0  3  7  Si
    -3.14415959 -0.09186471 0.0  2  8  N
    -3.40268075 0.95848335 0.0  1  9  H
    -3.95073599 -0.76720972 0.0  1  10  H
    -0.17836637 0.41349951 0.0  2  11  N
    1.49520211 -0.0473996 0.0  3  12  Si
    2.45603905 1.10727302 0.0  1  13  H
    2.30451743 -1.58574382 0.0  2  14  N
    1.10725559 -2.84610319 0.0  3  15  Si
    0.7072120050007787 6.564385178274048 0.0  1  16  H
    -0.10149867499922124 5.872179298274047 0.0  2  17  N
    -1.7580885149992211 6.5852993982740475 0.0  3  18  Si
    -1.661223344999221 8.096024608274048 0.0  1  19  H
    -3.484244864999221 5.242251268274047 0.0  3  20  Si
    -5.838699114999222 5.2342643382740475 0.0  3  21  Si
    -6.401117234999222 5.968753988274047 -1.20183078  1  22  H
    -6.138512864999222 3.755173208274047 -0.08618332  1  23  H
    -6.401229694999222 5.799096798274047 1.28814761  1  24  H
    -2.554854224999221 3.1716800382740473 0.0  3  25  Si
    -3.5043225849992212 1.8831439082740473 0.0  4  26  O
    -0.7639093549992213 2.9979445682740478 0.0  2  27  N
    -0.43291799499922123 1.9655875882740477 0.0  1  28  H
    0.5445488650007787 4.192490988274047 0.0  3  29  Si
    2.1104857950007787 3.9252441382740475 0.0  4  30  O
%endblock AtomicCoordinatesAndAtomicSpecies

#############
# Unit Cell
#############
LatticeConstant 1.0 Ang
%block LatticeVectors
    30.00000    0.000000    0.000000
    0.000000    45.00000    0.000000
    0.000000    0.000000    10.00000
%endblock LatticeVectors

%include ../../../../Defaults.fdf
