# mpirun -np 4 siesta-4.1.5 < AT.fdf > AT.out &

SystemLabel      AT

NumberOfAtoms    30

NumberOfSpecies  4
%block ChemicalSpeciesLabel
    1    1  H
    2    7  N
    3   14  Si
    4    8  O
%endblock ChemicalSpeciesLabel

############################################
# This overrides Defaults.fdf configuration
############################################
MD.TypeOfRun                Verlet # CG, Verlet
MD.Steps                    0
MaxSCFIterations            300

AtomicCoordinatesFormat NotScaledCartesianAng
%block AtomicCoordinatesAndAtomicSpecies
    2.28494382 -5.19529124 0.0  1  1  H
    1.37433094 -4.6647107 0.0  2  2  N
    -0.21830245 -5.49458215 0.0  3  3  Si
    -0.17484108 -6.98516892 0.0  1  4  H
    -1.66171682 -4.58600741 0.0  2  5  N
    -1.09026419 -2.87456374 0.0  3  6  Si
    -1.53038332 -0.70765692 0.0  3  7  Si
    -3.14415959 -0.09186471 0.0  2  8  N
    -3.40268075 0.95848335 0.0  1  9  H
    -3.95073599 -0.76720972 0.0  1  10  H
    -0.17836637 0.41349951 0.0  2  11  N
    1.49520211 -0.0473996 0.0  3  12  Si
    2.45603905 1.10727302 0.0  1  13  H
    2.30451743 -1.58574382 0.0  2  14  N
    1.10725559 -2.84610319 0.0  3  15  Si
    0.7196043209658576 6.4755013079426575 0.0  1  16  H
    -0.0891063590341424 5.783295427942657 0.0  2  17  N
    -1.7456961990341424 6.496415527942657 0.0  3  18  Si
    -1.6488310290341424 8.007140737942658 0.0  1  19  H
    -3.4718525490341423 5.153367397942657 0.0  3  20  Si
    -5.826306799034143 5.145380467942657 0.0  3  21  Si
    -6.388724919034143 5.879870117942657 -1.20183078  1  22  H
    -6.126120549034143 3.666289337942657 -0.08618332  1  23  H
    -6.388837379034142 5.710212927942657 1.28814761  1  24  H
    -2.5424619090341425 3.082796167942657 0.0  3  25  Si
    -3.4919302690341425 1.794260037942657 0.0  4  26  O
    -0.7515170390341425 2.909060697942657 0.0  2  27  N
    -0.42052567903414234 1.8767037179426573 0.0  1  28  H
    0.5569411809658575 4.103607117942657 0.0  3  29  Si
    2.1228781109658574 3.8363602679426574 0.0  4  30  O
%endblock AtomicCoordinatesAndAtomicSpecies

%include ../../../../Defaults.fdf
