SystemLabel      GC

NumberOfAtoms    29

NumberOfSpecies  4
%block ChemicalSpeciesLabel
    1    8  O
    2    7  N
    3   14  Si
    4    1  H
%endblock ChemicalSpeciesLabel

# Single point calculation
MD.TypeOfRun                CG
MD.Steps                    0
SCF.MustConverge            F # In case it does not. There can be 2 very close atoms

AtomicCoordinatesFormat NotScaledCartesianAng
%block AtomicCoordinatesAndAtomicSpecies
1.043624880    3.939228610    0.000000000       1
-3.040641290   1.071078170    0.000000000       2
2.054601450    1.213582070    0.000000000       2
0.999014100    -1.732643800   0.000000000       2
-2.132351640   -1.812968220   0.000000000       2
3.860190550    -1.112298180   0.000000000       2
-1.236183220   1.152964460    0.000000000       3
-0.532924260   -0.939006270   0.000000000       3
0.635660470    2.374516770    0.000000000       3
2.245170240    -0.549967100   0.000000000       3
-3.449816660   -0.583665030   0.000000000       3
2.963714090    1.790992630    0.000000000       4
-4.845591350   -1.123549660   0.000000000       4
4.007020910    -2.152308560   0.000000000       4
4.772194380    -0.502318160   0.000000000       4
-2.265399090   -2.864605110   0.000000000       4
4.782885696    4.792818980    0.000000000       3
6.687769666    5.999457920    0.000000000       3
6.192015526    2.026484010    0.000000000       3
8.269485816    4.495701170    0.000000000       3
4.842508366    3.075391410    0.000000000       2
3.243750636    5.546496290    0.000000000       2
7.844310786    2.756321230    0.000000000       2
6.879114466    7.491611670    0.000000000       4
9.753853796    4.714431990    0.000000000       4
3.132405356    6.595691400    0.000000000       4
2.311192926    4.921582110    0.000000000       4
6.181788696    0.418372890    0.000000000       1
8.619736666    2.029629670    0.000000000       4
%endblock AtomicCoordinatesAndAtomicSpecies

%include ../../../Defaults.fdf
