SystemLabel      AT

NumberOfAtoms    30

NumberOfSpecies  4
%block ChemicalSpeciesLabel
    1    1  H
    2    7  N
    3   14  Si
    4    8  O
%endblock ChemicalSpeciesLabel

# Single point calculation
MD.TypeOfRun                CG
MD.Steps                    0
SCF.MustConverge            F # In case it does not. There can be 2 very close atoms

AtomicCoordinatesFormat NotScaledCartesianAng
%block AtomicCoordinatesAndAtomicSpecies
2.582377650    -5.776830440   0.000000000       1
1.654759240    -5.269361980   0.000000000       2
0.063128840    -6.101704590   0.000000000       3
0.119223240    -7.596849500   0.000000000       1
-1.376892050   -5.182603740   0.000000000       2
-0.824371900   -3.460866440   0.000000000       3
-1.170571480   -1.270002100   0.000000000       3
-2.706933680   -0.417515780   0.000000000       2
-2.754569660   0.634858620    0.000000000       1
-3.637675640   -0.909967860   0.000000000       1
0.218091790    -0.234193970   0.000000000       2
1.872004100    -0.697162300   0.000000000       3
2.828001130    0.461464770    0.000000000       1
2.648150080    -2.255024470   0.000000000       2
1.391921380    -3.454727220   0.000000000       3
1.914833777    3.837462583    0.000000000       2
0.587462257    5.047666883    0.000000000       3
1.227463527    6.408985123    0.000000000       1
-1.498283683   4.377135533    0.000000000       3
-3.527846283   5.507251723    0.000000000       3
-3.373610513   6.667481933    0.940305280       1
-4.513781003   4.485331103    0.512613700       1
-3.944061243   5.983477573    -1.366678340      1
-1.431788263   2.103158913    0.000000000       3
-2.470836993   0.910099413    0.000000000       4
0.225203317    1.469183723    0.000000000       2
0.207185947    0.406738893    0.000000000       1
1.848806387    2.066253933    0.000000000       3
3.043822557    1.051828733    0.000000000       4
2.914871147    4.182969683    0.000000000       1
%endblock AtomicCoordinatesAndAtomicSpecies

%include ../../../Defaults.fdf
