SystemLabel      GC

NumberOfAtoms    29

NumberOfSpecies  4
%block ChemicalSpeciesLabel
    1    8  O
    2    7  N
    3   14  Si
    4    1  H
%endblock ChemicalSpeciesLabel

# Single point calculation
MD.TypeOfRun                CG
MD.Steps                    0
SCF.MustConverge            F # In case it does not. There can be 2 very close atoms

AtomicCoordinatesFormat NotScaledCartesianAng
%block AtomicCoordinatesAndAtomicSpecies
0.854927710    3.902811360    0.000000000       1
-3.151486600   0.823854130    0.000000000       2
1.928518680    1.174000900    0.000000000       2
0.979899500    -1.830275890   0.000000000       2
-2.159258930   -2.028004800   0.000000000       2
3.785319770    -1.112700660   0.000000000       2
-1.345933810   0.976250250    0.000000000       3
-0.599439880   -1.096077170   0.000000000       3
0.453182890    2.350510230    0.000000000       3
2.133302030    -0.576510800   0.000000000       3
-3.516065660   -0.842056510   0.000000000       3
2.824527830    1.754723110    0.000000000       4
-4.877551690   -1.469214660   0.000000000       4
3.994952020    -2.143204000   0.000000000       4
4.620903610    -0.483666060   0.000000000       4
-2.279085180   -3.081514090   0.000000000       4
5.662356586    5.623529121    -0.000000000      3
7.531316076    6.883172751    -0.000000000      3
7.072383696    2.881790901    -0.000000000      3
9.139976416    5.388382121    -0.000000000      3
5.721886536    3.938576661    -0.000000000      2
4.032357386    6.253589351    -0.000000000      2
8.716272566    3.672881311    -0.000000000      2
7.811679776    8.353395271    -0.000000000      4
10.635387796   5.607234661    -0.000000000      4
3.787898396    7.272055301    -0.000000000      4
3.205616206    5.596741221    -0.000000000      4
7.131659456    1.299348871    -0.000000000      1
9.487928156    2.945913951    -0.000000000      4
%endblock AtomicCoordinatesAndAtomicSpecies

%include ../../../Defaults.fdf
