SystemLabel      GC

NumberOfAtoms    29

NumberOfSpecies  4
%block ChemicalSpeciesLabel
    1    8  O
    2    7  N
    3   14  Si
    4    1  H
%endblock ChemicalSpeciesLabel

# Single point calculation
MD.TypeOfRun                CG
MD.Steps                    0
SCF.MustConverge            F # In case it does not. There can be 2 very close atoms

AtomicCoordinatesFormat NotScaledCartesianAng
%block AtomicCoordinatesAndAtomicSpecies
0.854927710    3.902811360    0.000000000       1
-3.151486600   0.823854130    0.000000000       2
1.928518680    1.174000900    0.000000000       2
0.979899500    -1.830275890   0.000000000       2
-2.159258930   -2.028004800   0.000000000       2
3.785319770    -1.112700660   0.000000000       2
-1.345933810   0.976250250    0.000000000       3
-0.599439880   -1.096077170   0.000000000       3
0.453182890    2.350510230    0.000000000       3
2.133302030    -0.576510800   0.000000000       3
-3.516065660   -0.842056510   0.000000000       3
2.824527830    1.754723110    0.000000000       4
-4.877551690   -1.469214660   0.000000000       4
3.994952020    -2.143204000   0.000000000       4
4.620903610    -0.483666060   0.000000000       4
-2.279085180   -3.081514090   0.000000000       4
6.692082963    6.365560343    -0.000000000      3
8.561042453    7.625203973    -0.000000000      3
8.102110073    3.623822123    -0.000000000      3
10.169702793   6.130413343    -0.000000000      3
6.751612913    4.680607883    -0.000000000      2
5.062083763    6.995620573    -0.000000000      2
9.745998943    4.414912533    -0.000000000      2
8.841406153    9.095426493    -0.000000000      4
11.665114173   6.349265883    -0.000000000      4
4.817624773    8.014086523    -0.000000000      4
4.235342583    6.338772443    -0.000000000      4
8.161385833    2.041380093    -0.000000000      1
10.517654533   3.687945173    -0.000000000      4
%endblock AtomicCoordinatesAndAtomicSpecies

%include ../../../Defaults.fdf
