SystemLabel      GC

NumberOfAtoms    29

NumberOfSpecies  4
%block ChemicalSpeciesLabel
    1    8  O
    2    7  N
    3   14  Si
    4    1  H
%endblock ChemicalSpeciesLabel

# Single point calculation
MD.TypeOfRun                CG
MD.Steps                    0
SCF.MustConverge            F # In case it does not. There can be 2 very close atoms

AtomicCoordinatesFormat NotScaledCartesianAng
%block AtomicCoordinatesAndAtomicSpecies
    0.85492771    3.90281136    0.00000000   1       1  O
   -3.15148660    0.82385413    0.00000000   2       2  N
    1.92851868    1.17400090    0.00000000   2       3  N
    0.97989950   -1.83027589    0.00000000   2       4  N
   -2.15925893   -2.02800480    0.00000000   2       5  N
    3.78531977   -1.11270066    0.00000000   2       6  N
   -1.34593381    0.97625025    0.00000000   3       7  Si
   -0.59943988   -1.09607717    0.00000000   3       8  Si
    0.45318289    2.35051023    0.00000000   3       9  Si
    2.13330203   -0.57651080    0.00000000   3      10  Si
   -3.51606566   -0.84205651    0.00000000   3      11  Si
    2.82452783    1.75472311    0.00000000   4      12  H
   -4.87755169   -1.46921466    0.00000000   4      13  H
    3.99495202   -2.14320400    0.00000000   4      14  H
    4.62090361   -0.48366606    0.00000000   4      15  H
   -2.27908518   -3.08151409    0.00000000   4      16  H   ###
    4.48364186    4.77413539   -0.00000000   3      17  Si
    6.35260135    6.03377902   -0.00000000   3      18  Si
    5.89366897    2.03239717   -0.00000000   3      19  Si
    7.96126169    4.53898839   -0.00000000   3      20  Si
    4.54317181    3.08918293   -0.00000000   2      21  N
    2.85364266    5.40419562   -0.00000000   2      22  N
    7.53755784    2.82348758   -0.00000000   2      23  N
    6.63296505    7.50400154   -0.00000000   4      24  H
    9.45667307    4.75784093   -0.00000000   4      25  H
    2.60918367    6.42266157   -0.00000000   4      26  H
    2.02690148    4.74734749   -0.00000000   4      27  H
    5.95294473    0.44995514   -0.00000000   1      28  O
    8.30921343    2.09652022   -0.00000000   4      29  H
%endblock AtomicCoordinatesAndAtomicSpecies

%include ../../../Defaults.fdf
