# mpirun -np 4 siesta-4.1.5 < AT.fdf > AT.out &

SystemLabel      AT

NumberOfAtoms    30

NumberOfSpecies  4
%block ChemicalSpeciesLabel
    1    1  H
    2    7  N
    3   14  Si
    4    8  O
%endblock ChemicalSpeciesLabel

############################################
# This overrides Defaults.fdf configuration
############################################
MD.TypeOfRun                Verlet # CG, Verlet
MD.Steps                    0
MaxSCFIterations            300

AtomicCoordinatesFormat NotScaledCartesianAng
%block AtomicCoordinatesAndAtomicSpecies
    2.28494382 -5.19529124 0.0  1  1  H
    1.37433094 -4.6647107 0.0  2  2  N
    -0.21830245 -5.49458215 0.0  3  3  Si
    -0.17484108 -6.98516892 0.0  1  4  H
    -1.66171682 -4.58600741 0.0  2  5  N
    -1.09026419 -2.87456374 0.0  3  6  Si
    -1.53038332 -0.70765692 0.0  3  7  Si
    -3.14415959 -0.09186471 0.0  2  8  N
    -3.40268075 0.95848335 0.0  1  9  H
    -3.95073599 -0.76720972 0.0  1  10  H
    -0.17836637 0.41349951 0.0  2  11  N
    1.49520211 -0.0473996 0.0  3  12  Si
    2.45603905 1.10727302 0.0  1  13  H
    2.30451743 -1.58574382 0.0  2  14  N
    1.10725559 -2.84610319 0.0  3  15  Si
    0.05646020651684469 11.23190161647334 0.0  1  16  H
    -0.7522504734831553 10.53969573647334 0.0  2  17  N
    -2.4088403134831555 11.252815836473339 0.0  3  18  Si
    -2.3119751434831555 12.763541046473339 0.0  1  19  H
    -4.134996663483156 9.909767706473339 0.0  3  20  Si
    -6.4894509134831555 9.90178077647334 0.0  3  21  Si
    -7.051869033483156 10.636270426473338 -1.20183078  1  22  H
    -6.789264663483156 8.422689646473339 -0.08618332  1  23  H
    -7.051981493483155 10.46661323647334 1.28814761  1  24  H
    -3.2056060234831554 7.839196476473339 0.0  3  25  Si
    -4.155074383483155 6.5506603464733395 0.0  4  26  O
    -1.4146611534831552 7.66546100647334 0.0  2  27  N
    -1.0836697934831552 6.633104026473339 0.0  1  28  H
    -0.10620293348315535 8.860007426473338 0.0  3  29  Si
    1.4597339965168445 8.592760576473339 0.0  4  30  O
%endblock AtomicCoordinatesAndAtomicSpecies

%include ../../../../Defaults.fdf
