# mpirun -np 4 siesta-4.1.5 < AT.fdf > AT.out &

SystemLabel      AT

NumberOfAtoms    30

NumberOfSpecies  4
%block ChemicalSpeciesLabel
    1    1  H
    2    7  N
    3   14  Si
    4    8  O
%endblock ChemicalSpeciesLabel

############################################
# This overrides Defaults.fdf configuration
############################################
MD.TypeOfRun                Verlet # CG, Verlet
MD.Steps                    0
MaxSCFIterations            300

AtomicCoordinatesFormat NotScaledCartesianAng
%block AtomicCoordinatesAndAtomicSpecies
    2.28494382 -5.19529124 0.0  1  1  H
    1.37433094 -4.6647107 0.0  2  2  N
    -0.21830245 -5.49458215 0.0  3  3  Si
    -0.17484108 -6.98516892 0.0  1  4  H
    -1.66171682 -4.58600741 0.0  2  5  N
    -1.09026419 -2.87456374 0.0  3  6  Si
    -1.53038332 -0.70765692 0.0  3  7  Si
    -3.14415959 -0.09186471 0.0  2  8  N
    -3.40268075 0.95848335 0.0  1  9  H
    -3.95073599 -0.76720972 0.0  1  10  H
    -0.17836637 0.41349951 0.0  2  11  N
    1.49520211 -0.0473996 0.0  3  12  Si
    2.45603905 1.10727302 0.0  1  13  H
    2.30451743 -1.58574382 0.0  2  14  N
    1.10725559 -2.84610319 0.0  3  15  Si
    0.2111938332216144 10.12207487781618 0.0  1  16  H
    -0.5975168467783856 9.42986899781618 0.0  2  17  N
    -2.2541066867783854 10.14298909781618 0.0  3  18  Si
    -2.1572415167783854 11.65371430781618 0.0  1  19  H
    -3.9802630367783856 8.79994096781618 0.0  3  20  Si
    -6.334717286778385 8.791954037816181 0.0  3  21  Si
    -6.897135406778386 9.52644368781618 -1.20183078  1  22  H
    -6.634531036778386 7.31286290781618 -0.08618332  1  23  H
    -6.897247866778385 9.35678649781618 1.28814761  1  24  H
    -3.0508723967783857 6.72936973781618 0.0  3  25  Si
    -4.000340756778385 5.44083360781618 0.0  4  26  O
    -1.2599275267783856 6.55563426781618 0.0  2  27  N
    -0.9289361667783855 5.52327728781618 0.0  1  28  H
    0.04853069322161435 7.750180687816179 0.0  3  29  Si
    1.6144676232216142 7.48293383781618 0.0  4  30  O
%endblock AtomicCoordinatesAndAtomicSpecies

%include ../../../../Defaults.fdf
