SystemLabel      GC

NumberOfAtoms    29

NumberOfSpecies  4
%block ChemicalSpeciesLabel
    1    8  O
    2    7  N
    3   14  Si
    4    1  H
%endblock ChemicalSpeciesLabel

# Single point calculation
MD.TypeOfRun                CG
MD.Steps                    0
SCF.MustConverge            F # In case it does not. There can be 2 very close atoms

AtomicCoordinatesFormat NotScaledCartesianAng
%block AtomicCoordinatesAndAtomicSpecies
0.854927710    3.902811360    0.000000000       1
-3.151486600   0.823854130    0.000000000       2
1.928518680    1.174000900    0.000000000       2
0.979899500    -1.830275890   0.000000000       2
-2.159258930   -2.028004800   0.000000000       2
3.785319770    -1.112700660   0.000000000       2
-1.345933810   0.976250250    0.000000000       3
-0.599439880   -1.096077170   0.000000000       3
0.453182890    2.350510230    0.000000000       3
2.133302030    -0.576510800   0.000000000       3
-3.516065660   -0.842056510   0.000000000       3
2.824527830    1.754723110    0.000000000       4
-4.877551690   -1.469214660   0.000000000       4
3.994952020    -2.143204000   0.000000000       4
4.620903610    -0.483666060   0.000000000       4
-2.279085180   -3.081514090   0.000000000       4
5.776770628    5.705977035    -0.000000000      3
7.645730118    6.965620665    -0.000000000      3
7.186797738    2.964238815    -0.000000000      3
9.254390458    5.470830035    -0.000000000      3
5.836300578    4.021024575    -0.000000000      2
4.146771428    6.336037265    -0.000000000      2
8.830686608    3.755329225    -0.000000000      2
7.926093818    8.435843185    -0.000000000      4
10.749801838   5.689682575    -0.000000000      4
3.902312438    7.354503215    -0.000000000      4
3.320030248    5.679189135    -0.000000000      4
7.246073498    1.381796785    -0.000000000      1
9.602342198    3.028361865    -0.000000000      4
%endblock AtomicCoordinatesAndAtomicSpecies

%include ../../../Defaults.fdf
