# Created by GDIS version 0.90.0
#

SystemLabel      10G

NumberOfAtoms    628

NumberOfSpecies  5
%block ChemicalSpeciesLabel
    1    1  H
    2    8  O
    3    6  C
    4    7  N
    5   15  P
%endblock ChemicalSpeciesLabel

AtomicCoordinatesFormat NotScaledCartesianAng
%block AtomicCoordinatesAndAtomicSpecies
     3.558000000    -8.101000000     3.380000000    1
     4.337000000    -7.542000000     3.330000000    2
     5.627000000    -8.157000000     3.190000000    3
     5.654000000    -8.750000000     2.276000000    1
     5.805000000    -8.805000000     4.048000000    1
     6.713000000    -7.099000000     3.130000000    3
     7.693000000    -7.576000000     3.118000000    1
     6.632000000    -6.405000000     1.860000000    2
     6.958000000    -5.037000000     2.040000000    3
     7.735000000    -4.759000000     1.327000000    1
     5.785000000    -4.219000000     1.620000000    4
     4.456000000    -4.566000000     1.600000000    3
     4.149000000    -5.551000000     1.919000000    1
     3.660000000    -3.609000000     1.170000000    4
     4.530000000    -2.553000000     0.900000000    3
     4.259000000    -1.254000000     0.410000000    3
     3.184000000    -0.747000000     0.110000000    2
     5.437000000    -0.504000000     0.270000000    4
     5.349000000     0.429000000    -0.079000000    1
     6.712000000    -0.955000000     0.570000000    3
     7.709000000    -0.094000000     0.370000000    4
     7.636000000     0.848000000     0.013000000    1
     8.640000000    -0.425000000     0.580000000    1
     6.966000000    -2.183000000     1.030000000    4
     5.830000000    -2.919000000     1.170000000    3
     6.601000000    -5.985000000     4.170000000    3
     5.567000000    -5.684000000     4.339000000    1
     7.355000000    -4.850000000     3.500000000    3
     7.493000000    -4.036000000     4.211000000    1
     8.328000000    -5.208000000     3.164000000    1
     7.183000000    -6.339000000     5.430000000    2
     7.170000000    -5.306000000     6.620000000    5
     8.139000000    -5.741000000     7.660000000    2
     5.786000000    -5.065000000     7.090000000    2
     7.724000000    -4.004000000     5.890000000    2
     9.142000000    -3.824000000     5.750000000    3
     9.484000000    -4.309000000     4.836000000    1
     9.642000000    -4.273000000     6.608000000    1
     9.484000000    -2.347000000     5.690000000    3
    10.566000000    -2.219000000     5.679000000    1
     9.041000000    -1.807000000     4.420000000    2
     8.577000000    -0.480000000     4.600000000    3
     9.080000000     0.174000000     3.888000000    1
     7.147000000    -0.425000000     4.180000000    4
     6.216000000    -1.435000000     4.160000000    3
     6.490000000    -2.430000000     4.479000000    1
     5.030000000    -1.060000000     3.730000000    4
     5.191000000     0.299000000     3.460000000    3
     4.262000000     1.246000000     2.970000000    3
     3.082000000     1.092000000     2.670000000    2
     4.847000000     2.513000000     2.830000000    4
     4.269000000     3.251000000     2.482000000    1
     6.165000000     2.822000000     3.130000000    3
     6.538000000     4.086000000     2.930000000    4
     5.967000000     4.839000000     2.573000000    1
     7.500000000     4.311000000     3.140000000    1
     7.041000000     1.926000000     3.590000000    4
     6.483000000     0.693000000     3.730000000    3
     8.788000000    -1.471000000     6.730000000    3
     7.756000000    -1.777000000     6.899000000    1
     8.809000000    -0.108000000     6.060000000    3
     8.485000000     0.652000000     6.771000000    1
     9.821000000     0.117000000     5.725000000    1
     9.469000000    -1.454000000     7.990000000    2
     8.900000000    -0.591000000     9.180000000    5
     9.951000000    -0.434000000    10.220000000    2
     7.606000000    -1.137000000     9.650000000    2
     8.663000000     0.804000000     8.450000000    2
     9.759000000     1.721000000     8.310000000    3
    10.310000000     1.499000000     7.396000000    1
    10.422000000     1.613000000     9.168000000    1
     9.249000000     3.149000000     8.250000000    3
    10.090000000     3.842000000     8.238000000    1
     8.584000000     3.364000000     6.980000000    2
     7.476000000     4.230000000     7.160000000    3
     7.546000000     5.052000000     6.448000000    1
     6.244000000     3.504000000     6.740000000    4
     6.007000000     2.151000000     6.720000000    3
     6.776000000     1.462000000     7.038000000    1
     4.805000000     1.825000000     6.290000000    4
     4.207000000     3.056000000     6.020000000    3
     2.913000000     3.351000000     5.530000000    3
     2.004000000     2.584000000     5.230000000    2
     2.722000000     4.733000000     5.390000000    4
     1.837000000     5.041000000     5.041000000    1
     3.663000000     5.705000000     5.690000000    3
     3.295000000     6.970000000     5.490000000    4
     2.408000000     7.296000000     5.133000000    1
     3.983000000     7.679000000     5.700000000    1
     4.885000000     5.425000000     6.150000000    4
     5.081000000     4.085000000     6.290000000    3
     8.189000000     3.510000000     9.290000000    3
     7.485000000     2.696000000     9.460000000    1
     7.471000000     4.669000000     8.620000000    3
     6.787000000     5.133000000     9.331000000    1
     8.202000000     5.405000000     8.286000000    1
     8.754000000     3.892000000    10.550000000    2
     7.809000000     4.311000000    11.740000000    5
     8.608000000     5.010000000    12.780000000    2
     7.014000000     3.152000000    12.210000000    2
     6.856000000     5.356000000    11.010000000    2
     7.283000000     6.721000000    10.870000000    3
     7.866000000     6.831000000     9.955000000    1
     7.900000000     6.990000000    11.728000000    1
     6.082000000     7.646000000    10.810000000    3
     6.417000000     8.683000000    10.799000000    1
     5.406000000     7.469000000     9.540000000    2
     4.006000000     7.599000000     9.720000000    3
     3.621000000     8.329000000     9.008000000    1
     3.361000000     6.322000000     9.300000000    4
     3.893000000     5.055000000     9.280000000    3
     4.912000000     4.890000000     9.598000000    1
     3.057000000     4.132000000     8.850000000    4
     1.889000000     4.845000000     8.580000000    3
     0.641000000     4.393000000     8.090000000    3
     0.291000000     3.257000000     7.790000000    2
    -0.267000000     5.453000000     7.950000000    4
    -1.178000000     5.234000000     7.601000000    1
     0.000000000     6.780000000     8.250000000    3
    -0.993000000     7.646000000     8.050000000    4
    -1.915000000     7.441000000     7.693000000    1
    -0.796000000     8.614000000     8.260000000    1
     1.180000000     7.204000000     8.710000000    4
     2.069000000     6.183000000     8.850000000    3
     4.995000000     7.378000000    11.850000000    3
     4.843000000     6.312000000    12.019000000    1
     3.765000000     7.965000000    11.180000000    3
     2.939000000     7.987000000    11.891000000    1
     3.982000000     8.979000000    10.845000000    1
     5.264000000     8.004000000    13.110000000    2
     4.243000000     7.846000000    14.300000000    5
     4.537000000     8.867000000    15.340000000    2
     4.200000000     6.442000000    14.770000000    2
     2.875000000     8.211000000    13.570000000    2
     2.498000000     9.590000000    13.430000000    3
     2.929000000     9.997000000    12.515000000    1
     2.872000000    10.149000000    14.288000000    1
     0.987000000     9.720000000    13.370000000    3
     0.708000000    10.774000000    13.359000000    1
     0.515000000     9.206000000    12.100000000    2
    -0.734000000     8.559000000    12.280000000    3
    -1.452000000     8.965000000    11.568000000    1
    -0.587000000     7.136000000    11.860000000    4
     0.545000000     6.357000000    11.840000000    3
     1.491000000     6.769000000    12.158000000    1
     0.341000000     5.129000000    11.410000000    4
    -1.028000000     5.097000000    11.140000000    3
    -1.834000000     4.043000000    10.650000000    3
    -1.515000000     2.898000000    10.350000000    2
    -3.171000000     4.445000000    10.510000000    4
    -3.820000000     3.769000000    10.161000000    1
    -3.663000000     5.705000000    10.810000000    3
    -4.966000000     5.898000000    10.610000000    4
    -5.632000000     5.228000000    10.252000000    1
    -5.323000000     6.819000000    10.820000000    1
    -2.899000000     6.700000000    11.270000000    4
    -1.599000000     6.321000000    11.410000000    3
     0.218000000     8.907000000    14.410000000    3
     0.665000000     7.928000000    14.579000000    1
    -1.135000000     8.737000000    13.740000000    3
    -1.842000000     8.309000000    14.451000000    1
    -1.500000000     9.708000000    13.405000000    1
     0.105000000     9.579000000    15.670000000    2
    -0.669000000     8.895000000    16.860000000    5
    -0.972000000     9.912000000    17.900000000    2
     0.054000000     7.690000000    17.330000000    2
    -2.016000000     8.463000000    16.130000000    2
    -3.079000000     9.420000000    15.990000000    3
    -2.936000000     9.996000000    15.075000000    1
    -3.067000000    10.093000000    16.848000000    1
    -4.420000000     8.713000000    15.930000000    3
    -5.224000000     9.449000000    15.919000000    1
    -4.540000000     8.025000000    14.660000000    2
    -5.241000000     6.806000000    14.840000000    3
    -6.065000000     6.760000000    14.128000000    1
    -4.349000000     5.688000000    14.420000000    4
    -2.976000000     5.644000000    14.400000000    3
    -2.403000000     6.502000000    14.718000000    1
    -2.484000000     4.500000000    13.970000000    4
    -3.619000000     3.734000000    13.700000000    3
    -3.728000000     2.412000000    13.210000000    3
    -2.840000000     1.620000000    12.910000000    2
    -5.070000000     2.028000000    13.070000000    4
    -5.250000000     1.109000000    12.720000000    1
    -6.165000000     2.822000000    13.370000000    3
    -7.365000000     2.280000000    13.170000000    4
    -7.563000000     1.356000000    12.812000000    1
    -8.163000000     2.862000000    13.380000000    1
    -6.059000000     4.072000000    13.830000000    4
    -4.761000000     4.455000000    13.970000000    3
    -4.629000000     7.613000000    16.970000000    3
    -3.723000000     7.031000000    17.139000000    1
    -5.675000000     6.739000000    16.300000000    3
    -6.039000000     5.997000000    17.011000000    1
    -6.507000000     7.359000000    15.965000000    1
    -5.087000000     8.118000000    18.230000000    2
    -5.368000000     7.124000000    19.420000000    5
    -6.173000000     7.816000000    20.460000000    2
    -4.109000000     6.500000000    19.890000000    2
    -6.269000000     6.033000000    18.690000000    2
    -7.680000000     6.263000000    18.550000000    3
    -7.871000000     6.825000000    17.636000000    1
    -8.032000000     6.836000000    19.408000000    1
    -8.427000000     4.944000000    18.490000000    3
    -9.501000000     5.129000000    18.479000000    1
    -8.156000000     4.300000000    17.220000000    2
    -8.087000000     2.896000000    17.400000000    3
    -8.755000000     2.412000000    16.688000000    1
    -6.732000000     2.437000000    16.980000000    4
    -5.553000000     3.142000000    16.960000000    3
    -5.534000000     4.174000000    17.278000000    1
    -4.521000000     2.445000000    16.530000000    4
    -5.063000000     1.187000000    16.260000000    3
    -4.440000000     0.015000000    15.770000000    3
    -3.266000000    -0.171000000    15.470000000    2
    -5.361000000    -1.032000000    15.630000000    4
    -5.016000000    -1.903000000    15.281000000    1
    -6.712000000    -0.955000000    15.930000000    3
    -7.430000000    -2.060000000    15.730000000    4
    -7.098000000    -2.944000000    15.372000000    1
    -8.416000000    -2.001000000    15.940000000    1
    -7.298000000     0.153000000    16.390000000    4
    -6.413000000     1.177000000    16.530000000    3
    -8.008000000     3.906000000    19.530000000    3
    -6.931000000     3.905000000    19.699000000    1
    -8.416000000     2.605000000    18.860000000    3
    -8.321000000     1.784000000    19.571000000    1
    -9.451000000     2.677000000    18.525000000    1
    -8.666000000     4.084000000    20.790000000    2
    -8.366000000     3.095000000    21.980000000    5
    -9.417000000     3.243000000    23.020000000    2
    -6.970000000     3.250000000    22.450000000    2
    -8.534000000     1.690000000    21.250000000    2
    -9.846000000     1.122000000    21.110000000    3
   -10.310000000     1.492000000    20.196000000    1
   -10.452000000     1.414000000    21.968000000    1
    -9.762000000    -0.392000000    21.050000000    3
   -10.766000000    -0.816000000    21.039000000    1
    -9.186000000    -0.788000000    19.780000000    2
    -8.370000000    -1.932000000    19.960000000    3
    -8.671000000    -2.700000000    19.248000000    1
    -6.982000000    -1.586000000    19.540000000    4
    -6.370000000    -0.356000000    19.520000000    3
    -6.911000000     0.523000000    19.839000000    1
    -5.126000000    -0.385000000    19.090000000    4
    -4.902000000    -1.736000000    18.820000000    3
    -3.745000000    -2.386000000    18.330000000    3
    -2.656000000    -1.908000000    18.030000000    2
    -3.954000000    -3.765000000    18.190000000    4
    -3.193000000    -4.312000000    17.841000000    1
    -5.132000000    -4.430000000    18.490000000    3
    -5.139000000    -5.748000000    18.290000000    4
    -4.382000000    -6.313000000    17.932000000    1
    -6.000000000    -6.232000000    18.500000000    1
    -6.224000000    -3.814000000    18.950000000    4
    -6.032000000    -2.474000000    19.090000000    3
    -8.849000000    -1.040000000    22.090000000    3
    -7.942000000    -0.459000000    22.260000000    1
    -8.490000000    -2.354000000    21.420000000    3
    -7.967000000    -2.994000000    22.131000000    1
    -9.400000000    -2.852000000    21.085000000    1
    -9.499000000    -1.245000000    23.350000000    2
    -8.712000000    -1.915000000    24.540000000    5
    -9.677000000    -2.359000000    25.580000000    2
    -7.621000000    -1.030000000    25.010000000    2
    -8.095000000    -3.189000000    23.810000000    2
    -8.892000000    -4.375000000    23.670000000    3
    -9.482000000    -4.315000000    22.755000000    1
    -9.560000000    -4.457000000    24.528000000    1
    -8.003000000    -5.604000000    23.610000000    3
    -8.618000000    -6.504000000    23.599000000    1
    -7.305000000    -5.626000000    22.340000000    2
    -5.999000000    -6.148000000    22.520000000    3
    -5.837000000    -6.957000000    21.807000000    1
    -5.019000000    -5.107000000    22.100000000    4
    -5.168000000    -3.741000000    22.080000000    3
    -6.098000000    -3.294000000    22.399000000    1
    -4.105000000    -3.093000000    21.650000000    4
    -3.187000000    -4.109000000    21.380000000    3
    -1.862000000    -4.031000000    20.890000000    3
    -1.204000000    -3.040000000    20.590000000    2
    -1.293000000    -5.305000000    20.750000000    4
    -0.357000000    -5.354000000    20.402000000    1
    -1.926000000    -6.501000000    21.050000000    3
    -1.219000000    -7.613000000    20.850000000    4
    -0.276000000    -7.678000000    20.493000000    1
    -1.682000000    -8.486000000    21.060000000    1
    -3.177000000    -6.572000000    21.510000000    4
    -3.740000000    -5.341000000    21.650000000    3
    -6.885000000    -5.655000000    24.650000000    3
    -6.436000000    -4.676000000    24.819000000    1
    -5.872000000    -6.568000000    23.980000000    3
    -5.086000000    -6.823000000    24.691000000    1
    -6.369000000    -7.479000000    23.645000000    1
    -7.320000000    -6.180000000    25.910000000    2
    -6.296000000    -6.318000000    27.100000000    5
    -6.869000000    -7.213000000    28.140000000    2
    -5.856000000    -4.984000000    27.570000000    2
    -5.089000000    -7.056000000    26.370000000    2
    -5.119000000    -8.486000000    26.230000000    3
    -5.648000000    -8.754000000    25.315000000    1
    -5.636000000    -8.917000000    27.087000000    1
    -3.707000000    -9.039000000    26.170000000    3
    -3.739000000   -10.128000000    26.159000000    1
    -3.108000000    -8.680000000    24.900000000    2
    -1.727000000    -8.415000000    25.080000000    3
    -1.154000000    -9.008000000    24.368000000    1
    -1.464000000    -7.009000000    24.660000000    4
    -2.328000000    -5.940000000    24.640000000    3
    -3.352000000    -6.066000000    24.958000000    1
    -1.783000000    -4.821000000    24.210000000    4
    -0.462000000    -5.179000000    23.940000000    3
     0.610000000    -4.398000000    23.450000000    3
     0.630000000    -3.209000000    23.150000000    2
     1.778000000    -5.163000000    23.310000000    4
     2.592000000    -4.699000000    22.961000000    1
     1.892000000    -6.511000000    23.610000000    3
     3.087000000    -7.065000000    23.410000000    4
     3.915000000    -6.611000000    23.053000000    1
     3.169000000    -8.050000000    23.620000000    1
     0.877000000    -7.247000000    24.070000000    4
    -0.262000000    -6.515000000    24.210000000    3
    -2.739000000    -8.479000000    27.210000000    3
    -2.891000000    -7.413000000    27.379000000    1
    -1.393000000    -8.699000000    26.540000000    3
    -0.594000000    -8.490000000    27.251000000    1
    -1.318000000    -9.733000000    26.204000000    1
    -2.822000000    -9.155000000    28.470000000    2
    -2.225000000    -8.826000000    29.146000000    1
     8.847000000     0.091000000    19.660000000    1
     8.658000000    -0.849000000    19.710000000    2
     9.750000000    -1.772000000    19.850000000    3
    10.301000000    -1.552000000    20.765000000    1
    10.415000000    -1.668000000    18.992000000    1
     9.232000000    -3.197000000    19.910000000    3
    10.070000000    -3.894000000    19.921000000    1
     8.567000000    -3.409000000    21.180000000    2
     7.454000000    -4.269000000    21.000000000    3
     7.516000000    -5.095000000    21.708000000    1
     6.226000000    -3.537000000    21.420000000    4
     6.178000000    -2.176000000    21.380000000    3
     7.039000000    -1.614000000    21.050000000    1
     5.060000000    -1.508000000    21.750000000    3
     5.029000000    -0.420000000    21.687000000    1
     3.950000000    -2.299000000    22.200000000    3
     2.823000000    -1.709000000    22.580000000    4
     2.065000000    -2.300000000    22.890000000    1
     2.741000000    -0.703000000    22.554000000    1
     4.001000000    -3.641000000    22.240000000    4
     5.140000000    -4.282000000    21.850000000    3
     5.238000000    -5.520000000    21.870000000    2
     8.171000000    -3.553000000    18.870000000    3
     7.471000000    -2.735000000    18.701000000    1
     7.447000000    -4.708000000    19.540000000    3
     6.762000000    -5.169000000    18.829000000    1
     8.174000000    -5.448000000    19.876000000    1
     8.733000000    -3.938000000    17.610000000    2
     7.786000000    -4.352000000    16.420000000    5
     8.582000000    -5.055000000    15.380000000    2
     6.998000000    -3.189000000    15.950000000    2
     6.828000000    -5.392000000    17.150000000    2
     7.248000000    -6.759000000    17.290000000    3
     7.830000000    -6.872000000    18.204000000    1
     7.863000000    -7.031000000    16.432000000    1
     6.042000000    -7.678000000    17.350000000    3
     6.371000000    -8.717000000    17.361000000    1
     5.367000000    -7.497000000    18.620000000    2
     3.966000000    -7.619000000    18.440000000    3
     3.571000000    -8.348000000    19.148000000    1
     3.328000000    -6.339000000    18.860000000    4
     4.024000000    -5.169000000    18.820000000    3
     5.053000000    -5.160000000    18.491000000    1
     3.443000000    -4.003000000    19.190000000    3
     4.005000000    -3.071000000    19.127000000    1
     2.082000000    -4.068000000    19.640000000    3
     1.452000000    -2.963000000    20.020000000    4
     0.495000000    -3.051000000    20.330000000    1
     1.927000000    -2.072000000    19.994000000    1
     1.400000000    -5.226000000    19.680000000    4
     2.012000000    -6.380000000    19.290000000    3
     1.426000000    -7.475000000    19.310000000    2
     4.957000000    -7.404000000    16.310000000    3
     4.810000000    -6.337000000    16.141000000    1
     3.723000000    -7.985000000    16.980000000    3
     2.897000000    -8.003000000    16.269000000    1
     3.935000000    -9.000000000    17.315000000    1
     5.222000000    -8.032000000    15.050000000    2
     4.201000000    -7.869000000    13.860000000    5
     4.491000000    -8.890000000    12.820000000    2
     4.166000000    -6.464000000    13.390000000    2
     2.832000000    -8.226000000    14.590000000    2
     2.448000000    -9.603000000    14.730000000    3
     2.877000000   -10.013000000    15.644000000    1
     2.819000000   -10.164000000    13.872000000    1
     0.936000000    -9.725000000    14.790000000    3
     0.651000000   -10.777000000    14.801000000    1
     0.466000000    -9.208000000    16.060000000    2
    -0.779000000    -8.555000000    15.880000000    3
    -1.505000000    -8.955000000    16.588000000    1
    -0.624000000    -7.133000000    16.300000000    4
     0.594000000    -6.523000000    16.260000000    3
     1.464000000    -7.071000000    15.930000000    1
     0.735000000    -5.229000000    16.630000000    3
     1.712000000    -4.749000000    16.567000000    1
    -0.446000000    -4.548000000    17.080000000    3
    -0.379000000    -3.278000000    17.460000000    4
    -1.232000000    -2.835000000    17.770000000    1
     0.502000000    -2.785000000    17.435000000    1
    -1.645000000    -5.154000000    17.120000000    4
    -1.754000000    -6.456000000    16.730000000    3
    -2.838000000    -7.061000000    16.750000000    2
     0.171000000    -8.908000000    13.750000000    3
     0.623000000    -7.931000000    13.580000000    1
    -1.180000000    -8.731000000    14.420000000    3
    -1.885000000    -8.299000000    13.709000000    1
    -1.550000000    -9.700000000    14.754000000    1
     0.055000000    -9.580000000    12.490000000    2
    -0.715000000    -8.891000000    11.300000000    5
    -1.024000000    -9.907000000    10.260000000    2
     0.013000000    -7.690000000    10.830000000    2
    -2.060000000    -8.452000000    12.030000000    2
    -3.128000000    -9.403000000    12.170000000    3
    -2.988000000    -9.980000000    13.084000000    1
    -3.118000000   -10.075000000    11.312000000    1
    -4.466000000    -8.690000000    12.230000000    3
    -5.274000000    -9.422000000    12.242000000    1
    -4.582000000    -8.001000000    13.500000000    2
    -5.277000000    -6.778000000    13.320000000    3
    -6.104000000    -6.723000000    14.028000000    1
    -4.379000000    -5.665000000    13.740000000    4
    -3.024000000    -5.810000000    13.700000000    3
    -2.588000000    -6.741000000    13.370000000    1
    -2.206000000    -4.797000000    14.070000000    3
    -1.125000000    -4.921000000    14.007000000    1
    -2.832000000    -3.586000000    14.520000000    3
    -2.090000000    -2.554000000    14.900000000    4
    -2.569000000    -1.720000000    15.210000000    1
    -1.082000000    -2.615000000    14.875000000    1
    -4.168000000    -3.448000000    14.560000000    4
    -4.964000000    -4.485000000    14.170000000    3
    -6.203000000    -4.408000000    14.190000000    2
    -4.669000000    -7.589000000    11.190000000    3
    -3.760000000    -7.012000000    11.021000000    1
    -5.710000000    -6.709000000    11.860000000    3
    -6.070000000    -5.965000000    11.149000000    1
    -6.545000000    -7.324000000    12.196000000    1
    -5.129000000    -8.091000000     9.930000000    2
    -5.405000000    -7.096000000     8.740000000    5
    -6.214000000    -7.784000000     7.700000000    2
    -4.143000000    -6.478000000     8.270000000    2
    -6.300000000    -6.000000000     9.470000000    2
    -7.712000000    -6.223000000     9.610000000    3
    -7.906000000    -6.784000000    10.524000000    1
    -8.067000000    -6.794000000     8.752000000    1
    -8.453000000    -4.900000000     9.670000000    3
    -9.528000000    -5.079000000     9.682000000    1
    -8.178000000    -4.257000000    10.940000000    2
    -8.102000000    -2.853000000    10.760000000    3
    -8.768000000    -2.360000000    11.468000000    1
    -6.745000000    -2.402000000    11.180000000    4
    -5.684000000    -3.255000000    11.140000000    3
    -5.821000000    -4.274000000    10.810000000    1
    -4.448000000    -2.845000000    11.510000000    3
    -3.605000000    -3.533000000    11.447000000    1
    -4.321000000    -1.488000000    11.960000000    3
    -3.138000000    -1.020000000    12.340000000    4
    -3.090000000    -0.060000000    12.650000000    1
    -2.323000000    -1.616000000    12.314000000    1
    -5.371000000    -0.650000000    12.000000000    4
    -6.600000000    -1.093000000    11.610000000    3
    -7.602000000    -0.358000000    11.630000000    2
    -8.029000000    -3.864000000     8.630000000    3
    -6.952000000    -3.869000000     8.461000000    1
    -8.430000000    -2.561000000     9.300000000    3
    -8.332000000    -1.741000000     8.589000000    1
    -9.465000000    -2.628000000     9.636000000    1
    -8.687000000    -4.038000000     7.370000000    2
    -8.382000000    -3.051000000     6.180000000    5
    -9.434000000    -3.193000000     5.140000000    2
    -6.986000000    -3.213000000     5.710000000    2
    -8.543000000    -1.645000000     6.910000000    2
    -9.852000000    -1.070000000     7.050000000    3
   -10.318000000    -1.437000000     7.965000000    1
   -10.460000000    -1.358000000     6.192000000    1
    -9.760000000     0.443000000     7.110000000    3
   -10.762000000     0.872000000     7.121000000    1
    -9.182000000     0.836000000     8.380000000    2
    -8.360000000     1.976000000     8.200000000    3
    -8.654000000     2.751000000     8.908000000    1
    -6.974000000     1.623000000     8.620000000    4
    -6.542000000     0.331000000     8.580000000    3
    -7.207000000    -0.453000000     8.250000000    1
    -5.280000000     0.009000000     8.950000000    3
    -4.942000000    -1.025000000     8.887000000    1
    -4.440000000     1.082000000     9.400000000    3
    -3.192000000     0.837000000     9.780000000    4
    -2.633000000     1.619000000    10.090000000    1
    -2.828000000    -0.105000000     9.754000000    1
    -4.871000000     2.355000000     9.440000000    4
    -6.144000000     2.646000000     9.050000000    3
    -6.590000000     3.805000000     9.070000000    2
    -8.844000000     1.086000000     6.070000000    3
    -7.941000000     0.499000000     5.901000000    1
    -8.477000000     2.399000000     6.740000000    3
    -7.951000000     3.036000000     6.029000000    1
    -9.384000000     2.902000000     7.076000000    1
    -9.492000000     1.295000000     4.810000000    2
    -8.702000000     1.961000000     3.620000000    5
    -9.664000000     2.410000000     2.580000000    2
    -7.615000000     1.070000000     3.150000000    2
    -8.078000000     3.231000000     4.350000000    2
    -8.869000000     4.422000000     4.490000000    3
    -9.460000000     4.365000000     5.404000000    1
    -9.535000000     4.507000000     3.632000000    1
    -7.974000000     5.646000000     4.550000000    3
    -8.584000000     6.549000000     4.561000000    1
    -7.275000000     5.664000000     5.820000000    2
    -5.967000000     6.179000000     5.640000000    3
    -5.796000000     6.990000000     6.348000000    1
    -4.992000000     5.133000000     6.060000000    4
    -5.326000000     3.813000000     6.020000000    3
    -6.310000000     3.512000000     5.690000000    1
    -4.438000000     2.860000000     6.390000000    3
    -4.712000000     1.807000000     6.327000000    1
    -3.152000000     3.309000000     6.840000000    3
    -2.234000000     2.429000000     7.220000000    4
    -1.341000000     2.786000000     7.530000000    1
    -2.436000000     1.440000000     7.194000000    1
    -2.827000000     4.613000000     6.880000000    4
    -3.741000000     5.546000000     6.490000000    3
    -3.490000000     6.762000000     6.510000000    2
    -6.855000000     5.691000000     3.510000000    3
    -6.411000000     4.710000000     3.340000000    1
    -5.838000000     6.598000000     4.180000000    3
    -5.050000000     6.849000000     3.469000000    1
    -6.330000000     7.512000000     4.514000000    1
    -7.288000000     6.218000000     2.250000000    2
    -6.263000000     6.351000000     1.060000000    5
    -6.831000000     7.249000000     0.020000000    2
    -5.830000000     5.015000000     0.590000000    2
    -5.052000000     7.083000000     1.790000000    2
    -5.074000000     8.512000000     1.930000000    3
    -5.602000000     8.783000000     2.844000000    1
    -5.589000000     8.944000000     1.072000000    1
    -3.660000000     9.059000000     1.990000000    3
    -3.686000000    10.149000000     2.001000000    1
    -3.063000000     8.697000000     3.260000000    2
    -1.683000000     8.423000000     3.080000000    3
    -1.100000000     9.013000000     3.788000000    1