SystemLabel      GC

NumberOfAtoms    29

NumberOfSpecies  4
%block ChemicalSpeciesLabel
    1    8  O
    2    7  N
    3   14  Si
    4    1  H
%endblock ChemicalSpeciesLabel

# Single point calculation
MD.TypeOfRun                CG
MD.Steps                    0
SCF.MustConverge            F # In case it does not. There can be 2 very close atoms

AtomicCoordinatesFormat NotScaledCartesianAng
%block AtomicCoordinatesAndAtomicSpecies
0.854927710    3.902811360    0.000000000       1
-3.151486600   0.823854130    0.000000000       2
1.928518680    1.174000900    0.000000000       2
0.979899500    -1.830275890   0.000000000       2
-2.159258930   -2.028004800   0.000000000       2
3.785319770    -1.112700660   0.000000000       2
-1.345933810   0.976250250    0.000000000       3
-0.599439880   -1.096077170   0.000000000       3
0.453182890    2.350510230    0.000000000       3
2.133302030    -0.576510800   0.000000000       3
-3.516065660   -0.842056510   0.000000000       3
2.824527830    1.754723110    0.000000000       4
-4.877551690   -1.469214660   0.000000000       4
3.994952020    -2.143204000   0.000000000       4
4.620903610    -0.483666060   0.000000000       4
-2.279085180   -3.081514090   0.000000000       4
7.836223381    7.190039479    -0.000000000      3
9.705182871    8.449683109    -0.000000000      3
9.246250491    4.448301259    -0.000000000      3
11.313843211   6.954892479    -0.000000000      3
7.895753331    5.505087019    -0.000000000      2
6.206224181    7.820099709    -0.000000000      2
10.890139361   5.239391669    -0.000000000      2
9.985546571    9.919905629    -0.000000000      4
12.809254591   7.173745019    -0.000000000      4
5.961765191    8.838565659    -0.000000000      4
5.379483001    7.163251579    -0.000000000      4
9.305526251    2.865859229    -0.000000000      1
11.661794951   4.512424309    -0.000000000      4
%endblock AtomicCoordinatesAndAtomicSpecies

%include ../../../Defaults.fdf
