SystemLabel      GC

NumberOfAtoms    29

NumberOfSpecies  4
%block ChemicalSpeciesLabel
    1    8  O
    2    7  N
    3   14  Si
    4    1  H
%endblock ChemicalSpeciesLabel

# Single point calculation
MD.TypeOfRun                CG
MD.Steps                    0
SCF.MustConverge            F # In case it does not. There can be 2 very close atoms

AtomicCoordinatesFormat NotScaledCartesianAng
%block AtomicCoordinatesAndAtomicSpecies
0.854927710    3.902811360    0.000000000       1
-3.151486600   0.823854130    0.000000000       2
1.928518680    1.174000900    0.000000000       2
0.979899500    -1.830275890   0.000000000       2
-2.159258930   -2.028004800   0.000000000       2
3.785319770    -1.112700660   0.000000000       2
-1.345933810   0.976250250    0.000000000       3
-0.599439880   -1.096077170   0.000000000       3
0.453182890    2.350510230    0.000000000       3
2.133302030    -0.576510800   0.000000000       3
-3.516065660   -0.842056510   0.000000000       3
2.824527830    1.754723110    0.000000000       4
-4.877551690   -1.469214660   0.000000000       4
3.994952020    -2.143204000   0.000000000       4
4.620903610    -0.483666060   0.000000000       4
-2.279085180   -3.081514090   0.000000000       4
6.005598712    5.870872862    -0.000000000      3
7.874558202    7.130516492    -0.000000000      3
7.415625822    3.129134642    -0.000000000      3
9.483218542    5.635725862    -0.000000000      3
6.065128662    4.185920402    -0.000000000      2
4.375599512    6.500933092    -0.000000000      2
9.059514692    3.920225052    -0.000000000      2
8.154921902    8.600739012    -0.000000000      4
10.978629922   5.854578402    -0.000000000      4
4.131140522    7.519399042    -0.000000000      4
3.548858332    5.844084962    -0.000000000      4
7.474901582    1.546692612    -0.000000000      1
9.831170282    3.193257692    -0.000000000      4
%endblock AtomicCoordinatesAndAtomicSpecies

%include ../../../Defaults.fdf
