# mpirun -np 4 siesta-4.1.5 < AT.fdf > AT.out &

SystemLabel      AT

NumberOfAtoms    30

NumberOfSpecies  4
%block ChemicalSpeciesLabel
    1    1  H
    2    7  N
    3   14  Si
    4    8  O
%endblock ChemicalSpeciesLabel

############################################
# This overrides Defaults.fdf configuration
############################################
MD.TypeOfRun                Verlet # CG, Verlet
MD.Steps                    0
MaxSCFIterations            200
SCF.MustConverge            F

AtomicCoordinatesFormat NotScaledCartesianAng
%block AtomicCoordinatesAndAtomicSpecies
    2.28494382 -5.19529124 0.0  1  1  H
    1.37433094 -4.6647107 0.0  2  2  N
    -0.21830245 -5.49458215 0.0  3  3  Si
    -0.17484108 -6.98516892 0.0  1  4  H
    -1.66171682 -4.58600741 0.0  2  5  N
    -1.09026419 -2.87456374 0.0  3  6  Si
    -1.53038332 -0.70765692 0.0  3  7  Si
    -3.14415959 -0.09186471 0.0  2  8  N
    -3.40268075 0.95848335 0.0  1  9  H
    -3.95073599 -0.76720972 0.0  1  10  H
    -0.17836637 0.41349951 0.0  2  11  N
    1.49520211 -0.0473996 0.0  3  12  Si
    2.45603905 1.10727302 0.0  1  13  H
    2.30451743 -1.58574382 0.0  2  14  N
    1.10725559 -2.84610319 0.0  3  15  Si
    0.5114553661999524 7.968449418462324 0.0  1  16  H
    -0.2972553138000477 7.276243538462324 0.0  2  17  N
    -1.9538451538000476 7.989363638462324 0.0  3  18  Si
    -1.8569799838000476 9.500088848462322 0.0  1  19  H
    -3.6800015038000478 6.646315508462323 0.0  3  20  Si
    -6.034455753800048 6.638328578462324 0.0  3  21  Si
    -6.596873873800048 7.372818228462323 -1.20183078  1  22  H
    -6.334269503800048 5.159237448462323 -0.08618332  1  23  H
    -6.596986333800047 7.203161038462324 1.28814761  1  24  H
    -2.750610863800048 4.575744278462324 0.0  3  25  Si
    -3.700079223800048 3.287208148462323 0.0  4  26  O
    -0.9596659938000477 4.402008808462323 0.0  2  27  N
    -0.6286746338000476 3.3696518284623234 0.0  1  28  H
    0.34879222619995226 5.596555228462323 0.0  3  29  Si
    1.9147291561999522 5.329308378462324 0.0  4  30  O
%endblock AtomicCoordinatesAndAtomicSpecies

#############
# Unit Cell
#############
LatticeConstant 1.0 Ang
%block LatticeVectors
    30.00000    0.000000    0.000000
    0.000000    45.00000    0.000000
    0.000000    0.000000    10.00000
%endblock LatticeVectors

%include ../../../../Defaults.fdf
