# mpirun -np 4 siesta-4.1.5 < AT.fdf > AT.out &

SystemLabel      AT

NumberOfAtoms    30

NumberOfSpecies  4
%block ChemicalSpeciesLabel
    1    1  H
    2    7  N
    3   14  Si
    4    8  O
%endblock ChemicalSpeciesLabel

############################################
# This overrides Defaults.fdf configuration
############################################
MD.TypeOfRun                Verlet # CG, Verlet
MD.Steps                    0
MaxSCFIterations            300

AtomicCoordinatesFormat NotScaledCartesianAng
%block AtomicCoordinatesAndAtomicSpecies
    2.28494382 -5.19529124 0.0  1  1  H
    1.37433094 -4.6647107 0.0  2  2  N
    -0.21830245 -5.49458215 0.0  3  3  Si
    -0.17484108 -6.98516892 0.0  1  4  H
    -1.66171682 -4.58600741 0.0  2  5  N
    -1.09026419 -2.87456374 0.0  3  6  Si
    -1.53038332 -0.70765692 0.0  3  7  Si
    -3.14415959 -0.09186471 0.0  2  8  N
    -3.40268075 0.95848335 0.0  1  9  H
    -3.95073599 -0.76720972 0.0  1  10  H
    -0.17836637 0.41349951 0.0  2  11  N
    1.49520211 -0.0473996 0.0  3  12  Si
    2.45603905 1.10727302 0.0  1  13  H
    2.30451743 -1.58574382 0.0  2  14  N
    1.10725559 -2.84610319 0.0  3  15  Si
    0.5206610866311537 7.902421400501862 0.0  1  16  H
    -0.28804959336884634 7.210215520501862 0.0  2  17  N
    -1.9446394333688464 7.923335620501862 0.0  3  18  Si
    -1.8477742633688463 9.434060830501862 0.0  1  19  H
    -3.6707957833688463 6.580287490501862 0.0  3  20  Si
    -6.025250033368846 6.572300560501862 0.0  3  21  Si
    -6.587668153368846 7.306790210501862 -1.20183078  1  22  H
    -6.325063783368846 5.093209430501862 -0.08618332  1  23  H
    -6.587780613368846 7.137133020501862 1.28814761  1  24  H
    -2.7414051433688464 4.509716260501862 0.0  3  25  Si
    -3.6908735033688465 3.221180130501862 0.0  4  26  O
    -0.9504602733688463 4.335980790501862 0.0  2  27  N
    -0.6194689133688462 3.3036238105018625 0.0  1  28  H
    0.35799794663115364 5.5305272105018615 0.0  3  29  Si
    1.9239348766311535 5.263280360501862 0.0  4  30  O
%endblock AtomicCoordinatesAndAtomicSpecies

%include ../../../../Defaults.fdf
