SystemLabel      AT

NumberOfAtoms    30

NumberOfSpecies  4
%block ChemicalSpeciesLabel
    1    1  H
    2    7  N
    3   14  Si
    4    8  O
%endblock ChemicalSpeciesLabel

# Single point calculation
MD.TypeOfRun                CG
MD.Steps                    0
SCF.MustConverge            F # In case it does not. There can be 2 very close atoms

AtomicCoordinatesFormat NotScaledCartesianAng
%block AtomicCoordinatesAndAtomicSpecies
2.582377650    -5.776830440   0.000000000       1
1.654759240    -5.269361980   0.000000000       2
0.063128840    -6.101704590   0.000000000       3
0.119223240    -7.596849500   0.000000000       1
-1.376892050   -5.182603740   0.000000000       2
-0.824371900   -3.460866440   0.000000000       3
-1.170571480   -1.270002100   0.000000000       3
-2.706933680   -0.417515780   0.000000000       2
-2.754569660   0.634858620    0.000000000       1
-3.637675640   -0.909967860   0.000000000       1
0.218091790    -0.234193970   0.000000000       2
1.872004100    -0.697162300   0.000000000       3
2.828001130    0.461464770    0.000000000       1
2.648150080    -2.255024470   0.000000000       2
1.391921380    -3.454727220   0.000000000       3
1.878844495    5.952541031    0.000000000       2
0.551472975    7.162745331    0.000000000       3
1.191474245    8.524063571    0.000000000       1
-1.534272965   6.492213981    0.000000000       3
-3.563835565   7.622330171    0.000000000       3
-3.409599795   8.782560381    0.940305280       1
-4.549770285   6.600409551    0.512613700       1
-3.980050525   8.098556021    -1.366678340      1
-1.467777545   4.218237361    0.000000000       3
-2.506826275   3.025177861    0.000000000       4
0.189214035    3.584262171    0.000000000       2
0.171196665    2.521817341    0.000000000       1
1.812817105    4.181332381    0.000000000       3
3.007833275    3.166907181    0.000000000       4
2.878881865    6.298048131    0.000000000       1
%endblock AtomicCoordinatesAndAtomicSpecies

%include ../../../Defaults.fdf
