SystemLabel      AT

NumberOfAtoms    30

NumberOfSpecies  4
%block ChemicalSpeciesLabel
    1    1  H
    2    7  N
    3   14  Si
    4    8  O
%endblock ChemicalSpeciesLabel

# Single point calculation
MD.TypeOfRun                CG
MD.Steps                    0
SCF.MustConverge            F # In case it does not. There can be 2 very close atoms

AtomicCoordinatesFormat NotScaledCartesianAng
%block AtomicCoordinatesAndAtomicSpecies
2.582377650    -5.776830440   0.000000000       1
1.654759240    -5.269361980   0.000000000       2
0.063128840    -6.101704590   0.000000000       3
0.119223240    -7.596849500   0.000000000       1
-1.376892050   -5.182603740   0.000000000       2
-0.824371900   -3.460866440   0.000000000       3
-1.170571480   -1.270002100   0.000000000       3
-2.706933680   -0.417515780   0.000000000       2
-2.754569660   0.634858620    0.000000000       1
-3.637675640   -0.909967860   0.000000000       1
0.218091790    -0.234193970   0.000000000       2
1.872004100    -0.697162300   0.000000000       3
2.828001130    0.461464770    0.000000000       1
2.648150080    -2.255024470   0.000000000       2
1.391921380    -3.454727220   0.000000000       3
1.847653784    7.785609020    0.000000000       2
0.520282264    8.995813320    0.000000000       3
1.160283534    10.357131560   0.000000000       1
-1.565463676   8.325281970    0.000000000       3
-3.595026276   9.455398160    0.000000000       3
-3.440790506   10.615628370   0.940305280       1
-4.580960996   8.433477540    0.512613700       1
-4.011241236   9.931624010    -1.366678340      1
-1.498968256   6.051305350    0.000000000       3
-2.538016986   4.858245850    0.000000000       4
0.158023324    5.417330160    0.000000000       2
0.140005954    4.354885330    0.000000000       1
1.781626394    6.014400370    0.000000000       3
2.976642564    4.999975170    0.000000000       4
2.847691154    8.131116120    0.000000000       1
%endblock AtomicCoordinatesAndAtomicSpecies

%include ../../../Defaults.fdf
