SystemLabel      AT

NumberOfAtoms    30

NumberOfSpecies  4
%block ChemicalSpeciesLabel
    1    1  H
    2    7  N
    3   14  Si
    4    8  O
%endblock ChemicalSpeciesLabel

# Single point calculation
MD.TypeOfRun                CG
MD.Steps                    0
SCF.MustConverge            F # In case it does not. There can be 2 very close atoms

AtomicCoordinatesFormat NotScaledCartesianAng
%block AtomicCoordinatesAndAtomicSpecies
2.582377650    -5.776830440   0.000000000       1
1.654759240    -5.269361980   0.000000000       2
0.063128840    -6.101704590   0.000000000       3
0.119223240    -7.596849500   0.000000000       1
-1.376892050   -5.182603740   0.000000000       2
-0.824371900   -3.460866440   0.000000000       3
-1.170571480   -1.270002100   0.000000000       3
-2.706933680   -0.417515780   0.000000000       2
-2.754569660   0.634858620    0.000000000       1
-3.637675640   -0.909967860   0.000000000       1
0.218091790    -0.234193970   0.000000000       2
1.872004100    -0.697162300   0.000000000       3
2.828001130    0.461464770    0.000000000       1
2.648150080    -2.255024470   0.000000000       2
1.391921380    -3.454727220   0.000000000       3
1.852452355    7.503598560    0.000000000       2
0.525080835    8.713802860    0.000000000       3
1.165082105    10.075121100   0.000000000       1
-1.560665105   8.043271510    0.000000000       3
-3.590227705   9.173387700    0.000000000       3
-3.435991935   10.333617910   0.940305280       1
-4.576162425   8.151467080    0.512613700       1
-4.006442665   9.649613550    -1.366678340      1
-1.494169685   5.769294890    0.000000000       3
-2.533218415   4.576235390    0.000000000       4
0.162821895    5.135319700    0.000000000       2
0.144804525    4.072874870    0.000000000       1
1.786424965    5.732389910    0.000000000       3
2.981441135    4.717964710    0.000000000       4
2.852489725    7.849105660    0.000000000       1
%endblock AtomicCoordinatesAndAtomicSpecies

%include ../../../Defaults.fdf
