# mpirun -np 4 siesta-4.1.5 < AT.fdf > AT.out &

SystemLabel      AT

NumberOfAtoms    30

NumberOfSpecies  4
%block ChemicalSpeciesLabel
    1    1  H
    2    7  N
    3   14  Si
    4    8  O
%endblock ChemicalSpeciesLabel

############################################
# This overrides Defaults.fdf configuration
############################################
MD.TypeOfRun                Verlet # CG, Verlet
MD.Steps                    0
MaxSCFIterations            200
SCF.MustConverge            F

AtomicCoordinatesFormat NotScaledCartesianAng
%block AtomicCoordinatesAndAtomicSpecies
    2.28494382 -5.19529124 0.0  1  1  H
    1.37433094 -4.6647107 0.0  2  2  N
    -0.21830245 -5.49458215 0.0  3  3  Si
    -0.17484108 -6.98516892 0.0  1  4  H
    -1.66171682 -4.58600741 0.0  2  5  N
    -1.09026419 -2.87456374 0.0  3  6  Si
    -1.53038332 -0.70765692 0.0  3  7  Si
    -3.14415959 -0.09186471 0.0  2  8  N
    -3.40268075 0.95848335 0.0  1  9  H
    -3.95073599 -0.76720972 0.0  1  10  H
    -0.17836637 0.41349951 0.0  2  11  N
    1.49520211 -0.0473996 0.0  3  12  Si
    2.45603905 1.10727302 0.0  1  13  H
    2.30451743 -1.58574382 0.0  2  14  N
    1.10725559 -2.84610319 0.0  3  15  Si
    0.0764406133092268 11.08859217443627 0.0  1  16  H
    -0.7322700666907732 10.396386294436269 0.0  2  17  N
    -2.388859906690773 11.10950639443627 0.0  3  18  Si
    -2.291994736690773 12.62023160443627 0.0  1  19  H
    -4.115016256690773 9.76645826443627 0.0  3  20  Si
    -6.469470506690773 9.758471334436269 0.0  3  21  Si
    -7.031888626690773 10.49296098443627 -1.20183078  1  22  H
    -6.769284256690773 8.279380204436269 -0.08618332  1  23  H
    -7.032001086690773 10.32330379443627 1.28814761  1  24  H
    -3.185625616690773 7.69588703443627 0.0  3  25  Si
    -4.135093976690773 6.407350904436269 0.0  4  26  O
    -1.3946807466907734 7.522151564436269 0.0  2  27  N
    -1.0636893866907733 6.48979458443627 0.0  1  28  H
    -0.08622252669077324 8.71669798443627 0.0  3  29  Si
    1.4797144033092267 8.44945113443627 0.0  4  30  O
%endblock AtomicCoordinatesAndAtomicSpecies

#############
# Unit Cell
#############
LatticeConstant 1.0 Ang
%block LatticeVectors
    30.00000    0.000000    0.000000
    0.000000    45.00000    0.000000
    0.000000    0.000000    10.00000
%endblock LatticeVectors

%include ../../../../Defaults.fdf
