# mpirun -np 4 siesta-4.1.5 < AT.fdf > AT.out &

SystemLabel      AT

NumberOfAtoms    30

NumberOfSpecies  4
%block ChemicalSpeciesLabel
    1    1  H
    2    7  N
    3   14  Si
    4    8  O
%endblock ChemicalSpeciesLabel

############################################
# This overrides Defaults.fdf configuration
############################################
MD.TypeOfRun                Verlet # CG, Verlet
MD.Steps                    0
MaxSCFIterations            300

AtomicCoordinatesFormat NotScaledCartesianAng
%block AtomicCoordinatesAndAtomicSpecies
    2.28494382 -5.19529124 0.0  1  1  H
    1.37433094 -4.6647107 0.0  2  2  N
    -0.21830245 -5.49458215 0.0  3  3  Si
    -0.17484108 -6.98516892 0.0  1  4  H
    -1.66171682 -4.58600741 0.0  2  5  N
    -1.09026419 -2.87456374 0.0  3  6  Si
    -1.53038332 -0.70765692 0.0  3  7  Si
    -3.14415959 -0.09186471 0.0  2  8  N
    -3.40268075 0.95848335 0.0  1  9  H
    -3.95073599 -0.76720972 0.0  1  10  H
    -0.17836637 0.41349951 0.0  2  11  N
    1.49520211 -0.0473996 0.0  3  12  Si
    2.45603905 1.10727302 0.0  1  13  H
    2.30451743 -1.58574382 0.0  2  14  N
    1.10725559 -2.84610319 0.0  3  15  Si
    0.07856501033181174 11.073354939522318 0.0  1  16  H
    -0.7301456696681883 10.381149059522318 0.0  2  17  N
    -2.3867355096681884 11.094269159522318 0.0  3  18  Si
    -2.2898703396681883 12.604994369522316 0.0  1  19  H
    -4.1128918596681885 9.751221029522316 0.0  3  20  Si
    -6.467346109668188 9.743234099522319 0.0  3  21  Si
    -7.029764229668189 10.477723749522317 -1.20183078  1  22  H
    -6.767159859668189 8.264142969522318 -0.08618332  1  23  H
    -7.029876689668188 10.308066559522317 1.28814761  1  24  H
    -3.183501219668188 7.6806497995223175 0.0  3  25  Si
    -4.132969579668188 6.392113669522317 0.0  4  26  O
    -1.3925563496681883 7.506914329522317 0.0  2  27  N
    -1.0615649896681882 6.474557349522318 0.0  1  28  H
    -0.0840981296681883 8.701460749522317 0.0  3  29  Si
    1.4818388003318117 8.434213899522318 0.0  4  30  O
%endblock AtomicCoordinatesAndAtomicSpecies

%include ../../../../Defaults.fdf
