SystemLabel      desoxy1

NumberOfAtoms    37

NumberOfSpecies  4
%block ChemicalSpeciesLabel
    1    8  O
    2   14  Si
    3    1  H
    4   15  P
%endblock ChemicalSpeciesLabel

############################################
# This overrides Defaults.fdf configuration
############################################
MD.TypeOfRun                Verlet # CG, Verlet
MD.Steps                    600
MD.Quench                   True
MD.InitialTemperature       1 K
SCF.H.Tolerance             0.00006 eV
SCF.DM.Tolerance            0.00008
MaxSCFIterations            300

AtomicCoordinatesFormat NotScaledCartesianAng
%block AtomicCoordinatesAndAtomicSpecies
  -10.27083356   15.58704552   -0.33967257   1       1  O
   -9.23210456   15.04409819    0.99116983   2       2  Si
  -10.00154760   14.08445467    1.87339822   3       3  H
   -8.76208085   16.24985946    1.78737425   3       4  H
   -7.18137218   13.96839200    0.33657783   2       5  Si
   -6.37225304   14.08399550    1.61698453   3       6  H
   -7.16980516   12.25617062   -0.08608159   1       7  O
   -7.59607874   11.75307018   -1.71684984   2       8  Si
   -6.54877505   10.75009550   -2.12914630   3       9  H
   -8.94040632   11.08283570   -1.61838676   3      10  H
   -6.43082896   15.14588195   -1.58240078   2      11  Si
   -6.90385052   16.58456280   -1.61728074   3      12  H
   -7.61828591   13.71258470   -3.06462361   2      13  Si
   -9.02667796   14.25067454   -3.23509309   3      14  H
   -6.99110883   13.50097323   -4.42715085   3      15  H
   -4.69160560   15.08420652   -1.70535694   1      16  O
   -4.34093598   15.25307184   -2.62259066   3      17  H
  -11.77339371   16.41532663    1.62339114   1      18  O
  -11.48475948   16.82423046   -0.00405510   4      19  P
  -10.62608094   18.16145529   -0.08663356   1      20  O
  -12.99736660   16.66764183   -0.59496348   1      21  O
  -17.08150844   14.08640828    2.72496948   1      22  O
  -16.46892085   14.95205205    4.11102500   2      23  Si
  -16.81580487   14.16832965    5.36395184   3      24  H
  -17.08078407   16.33519588    4.17185660   3      25  H
  -14.06961043   15.04319178    4.22742892   2      26  Si
  -13.71770031   15.99999075    5.36245555   3      27  H
  -13.62863482   13.42218702    4.76335471   1      28  O
  -13.05892780   12.27989427    3.55080013   2      29  Si
  -11.59176168   12.08317307    3.83033084   3      30  H
  -13.80650207   11.00002071    3.82958311   3      31  H
  -13.34366067   15.61917099    1.89172237   2      32  Si
  -14.51407075   16.50094352    1.53247899   3      33  H
  -13.40566096   13.26977497    1.39628611   2      34  Si
  -14.77850722   12.91829996    0.85146204   3      35  H
  -12.30188272   12.91715314    0.42529291   3      36  H
  -17.95852618   14.41697326    2.38649524   3      37  H
%endblock AtomicCoordinatesAndAtomicSpecies

#############
# Unit Cell
#############
LatticeConstant 1.0 Ang
%block LatticeVectors
    22.656367    0.000000    0.000000
    0.000000   15.001154    0.000000
    0.000000    0.000000   18.389973
%endblock LatticeVectors

%include ../../Defaults.fdf


