SystemLabel      GC

NumberOfAtoms    29

NumberOfSpecies  4
%block ChemicalSpeciesLabel
    1    8  O
    2    7  N
    3   14  Si
    4    1  H
%endblock ChemicalSpeciesLabel

# Single point calculation
MD.TypeOfRun                CG
MD.Steps                    0
SCF.MustConverge            F # In case it does not. There can be 2 very close atoms

AtomicCoordinatesFormat NotScaledCartesianAng
%block AtomicCoordinatesAndAtomicSpecies
0.854927710    3.902811360    0.000000000       1
-3.151486600   0.823854130    0.000000000       2
1.928518680    1.174000900    0.000000000       2
0.979899500    -1.830275890   0.000000000       2
-2.159258930   -2.028004800   0.000000000       2
3.785319770    -1.112700660   0.000000000       2
-1.345933810   0.976250250    0.000000000       3
-0.599439880   -1.096077170   0.000000000       3
0.453182890    2.350510230    0.000000000       3
2.133302030    -0.576510800   0.000000000       3
-3.516065660   -0.842056510   0.000000000       3
2.824527830    1.754723110    0.000000000       4
-4.877551690   -1.469214660   0.000000000       4
3.994952020    -2.143204000   0.000000000       4
4.620903610    -0.483666060   0.000000000       4
-2.279085180   -3.081514090   0.000000000       4
5.891184670    5.788424948    -0.000000000      3
7.760144160    7.048068578    -0.000000000      3
7.301211780    3.046686728    -0.000000000      3
9.368804500    5.553277948    -0.000000000      3
5.950714620    4.103472488    -0.000000000      2
4.261185470    6.418485178    -0.000000000      2
8.945100650    3.837777138    -0.000000000      2
8.040507860    8.518291098    -0.000000000      4
10.864215880   5.772130488    -0.000000000      4
4.016726480    7.436951128    -0.000000000      4
3.434444290    5.761637048    -0.000000000      4
7.360487540    1.464244698    -0.000000000      1
9.716756240    3.110809778    -0.000000000      4
%endblock AtomicCoordinatesAndAtomicSpecies

%include ../../../Defaults.fdf
