SystemLabel      AT

NumberOfAtoms    30

NumberOfSpecies  4
%block ChemicalSpeciesLabel
    1    1  H
    2    7  N
    3   14  Si
    4    8  O
%endblock ChemicalSpeciesLabel

# Single point calculation
MD.TypeOfRun                CG
MD.Steps                    0
SCF.MustConverge            F # In case it does not. There can be 2 very close atoms

AtomicCoordinatesFormat NotScaledCartesianAng
%block AtomicCoordinatesAndAtomicSpecies
2.582377650    -5.776830440   0.000000000       1
1.654759240    -5.269361980   0.000000000       2
0.063128840    -6.101704590   0.000000000       3
0.119223240    -7.596849500   0.000000000       1
-1.376892050   -5.182603740   0.000000000       2
-0.824371900   -3.460866440   0.000000000       3
-1.170571480   -1.270002100   0.000000000       3
-2.706933680   -0.417515780   0.000000000       2
-2.754569660   0.634858620    0.000000000       1
-3.637675640   -0.909967860   0.000000000       1
0.218091790    -0.234193970   0.000000000       2
1.872004100    -0.697162300   0.000000000       3
2.828001130    0.461464770    0.000000000       1
2.648150080    -2.255024470   0.000000000       2
1.391921380    -3.454727220   0.000000000       3
1.893240208    5.106509652    0.000000000       2
0.565868688    6.316713952    0.000000000       3
1.205869958    7.678032192    0.000000000       1
-1.519877252   5.646182602    0.000000000       3
-3.549439852   6.776298792    0.000000000       3
-3.395204082   7.936529002    0.940305280       1
-4.535374572   5.754378172    0.512613700       1
-3.965654812   7.252524642    -1.366678340      1
-1.453381832   3.372205982    0.000000000       3
-2.492430562   2.179146482    0.000000000       4
0.203609748    2.738230792    0.000000000       2
0.185592378    1.675785962    0.000000000       1
1.827212818    3.335301002    0.000000000       3
3.022228988    2.320875802    0.000000000       4
2.893277578    5.452016752    0.000000000       1
%endblock AtomicCoordinatesAndAtomicSpecies

%include ../../../Defaults.fdf
